optimize prop

species   3
Sb     core    0.620000                  
Te1    core   -0.500000                  
Te2    core   -0.370000     

#########################################################################################
#------------------------Fit Potential---------------------------------------------------
#########################################################################################

cutp 8.0 voter
             
morse     
Sb    core Te2   core .14489627     3.8760      3.05000  0.0000 &
  0.000 12.000  1 1 0
morse     
Sb    core Te1   core .17643185     .94893      3.23000  0.0000 &
  0.000 12.000  1 1 0
morse     
Sb    core Sb    core .49139953E-01 1.2076      4.25448  0.0000 &
  0.000 12.000  1 1 1
morse     
Te1   core Te1   core .59601307E-01 1.0574      4.39716  0.0000 &
  0.000 12.000  1 1 1
morse     
Te1   core Te2   core .88266044E-01 1.4181      4.73934  0.0000 &
  0.000 12.000  1 1 1
morse     
Te2   core Te2   core .88943896E-01 1.2594      1.19118  0.0000 &
  0.000 12.000  1 1 1

#########################################################################################
#------------------------Hex-------------------------------------------------------------
#########################################################################################



#Relax_9: Equillibrium
cell 4.33 4.33 31.4329 90.0 90.0 120.0 1 1 1 1 1 1
fractional
Sb core  0.6666666666666643  0.3333333333333357  0.0633052520656889   0 1 1 1
Sb core    0.6666666666666643  0.3333333333333357  0.2700280812676468   0 1 1 1
Sb core    0.0000000000000000  0.0000000000000000  0.3966385853990175   0 1 1 1
Sb core    0.0000000000000000  0.0000000000000000  0.6033614146009825   0 1 1 1
Sb core    0.3333333333333357  0.6666666666666643  0.7299719187323461   0 1 1 1
Sb core    0.3333333333333357  0.6666666666666643  0.9366947479343111   0 1 1 1
Te1 core  0.0000000000000000  0.0000000000000000  0.0000000000000000   0 1 1 1
Te2 core  0.3333333333333357  0.6666666666666643  0.1175907569327990   0 1 1 1
Te2 core  0.0000000000000000  0.0000000000000000  0.2157425764005367   0 1 1 1
Te1 core  0.3333333333333357  0.6666666666666643  0.3333333333333357   0 1 1 1
Te2 core  0.6666666666666643  0.3333333333333357  0.4509240902661347   0 1 1 1
Te2 core  0.3333333333333357  0.6666666666666643  0.5490759097338653   0 1 1 1
Te1 core  0.6666666666666643  0.3333333333333357  0.6666666666666643   0 1 1 1
Te2 core  0.0000000000000000  0.0000000000000000  0.7842574235994633   0 1 1 1
Te2 core  0.6666666666666643  0.3333333333333357  0.8824092430672010   0 1 1 1
