fit fbfgs simul optimize prop
#props

species
Ge core -0.2
Ge shell 2.2
Te core -2.1
Te shell 0.1
#Ge core 0.0
#Ge shell 0.0
#Te core 0.0
#Te shell 0.0
end
shift
22.0
vary
shift
end
vary
charge 2
Te 
Ge
end
#vary
#split 2
#Te 
#Ge
#end
#########################################################################################
#------------------------Fit Potential---------------------------------------------------
#########################################################################################

cutp 8.0 voter

#morse abs
#Ge shell Ge shell  0.47	0.93   	4.49	 	0.0 0.0 12.0     	0 0 0
#covexp abs
#Ge shell Ge shell  0.05	85.0   	4.25	 	0.0 12.0	     	0 0 0
morse abs
Te shell Te shell  0.06	0.93   	4.49	 	0.0 0.0 12.0     	1 1 1
covexp abs
Te shell Te shell  0.05	85.0   	4.25	 	0.0 12.0	     	1 1 1
morse abs
Te shell Ge shell  1.03     0.789		3.18		0.0 0.0 12.0         1 1 1
covexp abs
Te shell Ge core  0.703	220.0 		2.84		0.0 12.0         	1 1 1

spring
Ge 10.0 0.0 1 0
Te 8.0 0.0 1 0


#########################################################################################
#------------------------DRS-------------------------------------------------------------
#########################################################################################

#Relax_22
vectors
0.116746 3.103956 3.103956
3.103956 0.116746 3.103956
3.103956 3.103956 0.116746
0 0 0 0 0 0
fractional
Ge shell 0.998439  0.998439  0.998439 0 0 0 0
Te shell 0.445182271  0.445182271  0.445182271 0 0 0 0
Ge core 0.998439  0.998439  0.998439 0 0 0 0
Te core 0.445182271  0.445182271  0.445182271 0 0 0 0

observables
energy ev
-7.846642873 2.0
end

#Relax_21
vectors
0.116746 3.103956 3.103956
3.103956 0.116746 3.103956
3.103956 3.103956 0.116746
0 0 0 0 0 0
fractional
Ge shell 0.998439  0.998439  0.998439 0 0 0 0
Te shell 0.451826782  0.451826782  0.451826782 0 0 0 0
Ge core 0.998439  0.998439  0.998439 0 0 0 0
Te core 0.451826782  0.451826782  0.451826782 0 0 0 0

observables
energy ev
-7.90759778 2.0
end

#Relax_20
vectors
0.116746 3.103956 3.103956
3.103956 0.116746 3.103956
3.103956 3.103956 0.116746
0 0 0 0 0 0
fractional
Ge shell 0.998439  0.998439  0.998439 0 0 0 0
Te shell 0.458471294  0.458471294  0.458471294 0 0 0 0
Ge core 0.998439  0.998439  0.998439 0 0 0 0
Te core 0.458471294  0.458471294  0.458471294 0 0 0 0

observables
energy ev
-7.941912604 2.0
end





#Relax_19: Equillibrium
vectors
0.116746 3.103956 3.103956
3.103956 0.116746 3.103956
3.103956 3.103956 0.116746
0 0 0 0 0 0
fractional
Ge shell 0.998439  0.998439  0.998439 0 0 0 0
Te shell 0.465115805  0.465115805  0.465115805 0 0 0 0
Ge core 0.998439  0.998439  0.998439 0 0 0 0
Te core 0.465115805  0.465115805  0.465115805 0 0 0 0

observables
energy ev
-7.952505127 2.0
end





#Relax_18
vectors
0.116746 3.103956 3.103956
3.103956 0.116746 3.103956
3.103956 3.103956 0.116746
0 0 0 0 0 0
fractional
Ge shell 0.998439  0.998439  0.998439 0 0 0 0
Te shell 0.471760317  0.471760317  0.471760317 0 0 0 0
Ge core 0.998439  0.998439  0.998439 0 0 0 0
Te core 0.471760317  0.471760317  0.471760317 0 0 0 0

observables
energy ev
-7.944038425 2.0
end

#Relax_1
vectors
0.116746 3.103956 3.103956
3.103956 0.116746 3.103956
3.103956 3.103956 0.116746
0 0 0 0 0 0
fractional
Ge shell 0.998439  0.998439  0.998439 0 0 0 0
Te shell 0.478405  0.478405  0.478405 0 0 0 0
Ge core 0.998439  0.998439  0.998439 0 0 0 0
Te core 0.478405  0.478405  0.478405 0 0 0 0

observables
energy ev
-7.92293998 2.0
end

#Relax_2
vectors
0.116746 3.103956 3.103956
3.103956 0.116746 3.103956
3.103956 3.103956 0.116746  
0 0 0 0 0 0  
fractional
Ge shell 0.998439  0.998439  0.998439 0 0 0 0
Te shell 0.485049  0.485049  0.485049 0 0 0 0
Ge core 0.998439  0.998439  0.998439 0 0 0 0
Te core 0.485049  0.485049  0.485049 0 0 0 0

observables
energy ev
-7.897265421 2.0
end

#Relax_3
vectors
0.116746 3.103956 3.103956
3.103956 0.116746 3.103956
3.103956 3.103956 0.116746  
0 0 0 0 0 0  
fractional
Ge shell 0.998439  0.998439  0.998439 0 0 0 0
Te shell 0.491694  0.491694  0.491694 0 0 0 0
Ge core 0.998439  0.998439  0.998439 0 0 0 0
Te core 0.491694  0.491694  0.491694 0 0 0 0

observables
energy ev
-7.876617879 2.0
end

#Relax_4
vectors
0.116746 3.103956 3.103956
3.103956 0.116746 3.103956
3.103956 3.103956 0.116746  
0 0 0 0 0 0  
fractional
Ge shell 0.998439  0.998439  0.998439 0 0 0 0
Te shell 0.498338  0.498338  0.498338 0 0 0 0
Ge core 0.998439  0.998439  0.998439 0 0 0 0
Te core 0.498338  0.498338  0.498338 0 0 0 0

observables
energy ev
-7.868904067 2.0
end

#Relax_5
vectors
0.116746 3.103956 3.103956
3.103956 0.116746 3.103956
3.103956 3.103956 0.116746 
0 0 0 0 0 0   
fractional
Ge shell 0.998439  0.998439  0.998439 0 0 0 0
Te shell 0.504983  0.504983  0.504983 0 0 0 0
Ge core 0.998439  0.998439  0.998439 0 0 0 0
Te core 0.504983  0.504983  0.504983 0 0 0 0

observables
energy ev
-7.876181899 2.0
end

#Relax_6
vectors
0.116746 3.103956 3.103956
3.103956 0.116746 3.103956
3.103956 3.103956 0.116746
0 0 0 0 0 0  
fractional
Ge shell 0.998439  0.998439  0.998439 0 0 0 0
Te shell 0.511627  0.511627  0.511627 0 0 0 0
Ge core 0.998439  0.998439  0.998439 0 0 0 0
Te core 0.511627  0.511627  0.511627 0 0 0 0

observables
energy ev
-7.896510774 2.0
end

#Relax_7
vectors
0.116746 3.103956 3.103956
3.103956 0.116746 3.103956
3.103956 3.103956 0.116746
0 0 0 0 0 0   
fractional
Ge shell 0.998439  0.998439  0.998439 0 0 0 0
Te shell 0.518272  0.518272  0.518272 0 0 0 0
Ge core 0.998439  0.998439  0.998439 0 0 0 0
Te core 0.518272  0.518272  0.518272 0 0 0 0

observables
energy ev
-7.922184472 2.0
end

#Relax_8
vectors
0.116746 3.103956 3.103956
3.103956 0.116746 3.103956
3.103956 3.103956 0.116746
0 0 0 0 0 0   
fractional
Ge shell 0.998439  0.998439  0.998439 0 0 0 0
Te shell 0.524916  0.524916  0.524916 0 0 0 0
Ge core 0.998439  0.998439  0.998439 0 0 0 0
Te core 0.524916  0.524916  0.524916 0 0 0 0

observables
energy ev
-7.943547412 2.0
end




#Relax_9: Equillibrium
vectors
0.116746 3.103956 3.103956
3.103956 0.116746 3.103956
3.103956 3.103956 0.116746
0 0 0 0 0 0
fractional
Ge shell 0.998439  0.998439  0.998439 0 0 0 0
Te shell 0.531561  0.531561  0.531561 0 0 0 0
Ge core 0.998439  0.998439  0.998439 0 0 0 0
Te core 0.531561  0.531561  0.531561 0 0 0 0

observables
energy ev
-7.952500334 2.0

end




#Relax_10
vectors
0.116746 3.103956 3.103956
3.103956 0.116746 3.103956
3.103956 3.103956 0.116746 
0 0 0 0 0 0   
fractional
Ge shell 0.998439  0.998439  0.998439 0 0 0 0
Te shell 0.538205  0.538205  0.538205 0 0 0 0
Ge core 0.998439  0.998439  0.998439 0 0 0 0
Te core 0.538205  0.538205  0.538205 0 0 0 0

observables
energy ev
-7.942563086 2.0
end

#Relax_11
vectors
0.116746 3.103956 3.103956
3.103956 0.116746 3.103956
3.103956 3.103956 0.116746  
0 0 0 0 0 0     
fractional
Ge shell 0.998439  0.998439  0.998439 0 0 0 0
Te shell 0.54485  0.54485  0.54485 0 0 0 0
Ge core 0.998439  0.998439  0.998439 0 0 0 0
Te core 0.54485  0.54485  0.54485 0 0 0 0

observables
energy ev
-7.909018925 2.0
end

#Relax_12
vectors
0.116746 3.103956 3.103956
3.103956 0.116746 3.103956
3.103956 3.103956 0.116746
0 0 0 0 0 0         
fractional
Ge shell 0.998439  0.998439  0.998439 0 0 0 0
Te shell 0.551494  0.551494  0.551494 0 0 0 0
Ge core 0.998439  0.998439  0.998439 0 0 0 0
Te core 0.551494  0.551494  0.551494 0 0 0 0

observables
energy ev
-7.84889806 2.0
end


#########################################################################################
#------------------------ZB VaryCellSize-------------------------------------------------
#########################################################################################

#ZB_5
cell 
4.5   4.5   4.5  60.0 60.0 60.0 0 0 0 0 0 0
fractional
Ge shell 0.0  0.0  0.0 0.0000000 0 0 0
Te shell 0.24  0.24  0.24 0.0000000 0 0 0
Ge core 0.0  0.0  0.0 0.0000000 0 0 0
Te core 0.24  0.24  0.24 0.0000000 0 0 0

observables
energy ev
-7.0627 1.0
end

#ZB_6
cell 
4.625   4.625   4.625  60.0 60.0 60.0 0 0 0 0 0 0
fractional
Ge shell 0.0  0.0  0.0 0.0000000 0 0 0
Te shell 0.24  0.24  0.24 0.0000000 0 0 0
Ge core 0.0  0.0  0.0 0.0000000 0 0 0
Te core 0.24  0.24  0.24 0.0000000 0 0 0

observables
energy ev
-7.2989 1.0
end

#ZB_7
cell 
4.75   4.75   4.75  60.0 60.0 60.0 0 0 0 0 0 0
fractional
Ge shell 0.0  0.0  0.0 0.0000000 0 0 0
Te shell 0.24  0.24  0.24 0.0000000 0 0 0
Ge core 0.0  0.0  0.0 0.0000000 0 0 0
Te core 0.24  0.24  0.24 0.0000000 0 0 0

observables
energy ev
-7.4182 1.0
end

#ZB_8
cell 
4.875   4.875   4.875  60.0 60.0 60.0 0 0 0 0 0 0
fractional
Ge shell 0.0  0.0  0.0 0.0000000 0 0 0
Te shell 0.24  0.24  0.24 0.0000000 0 0 0
Ge core 0.0  0.0  0.0 0.0000000 0 0 0
Te core 0.24  0.24  0.24 0.0000000 0 0 0

observables
energy ev
-7.4439 1.0
end

#ZB_9
cell 
5.0   5.0   5.0  60.0 60.0 60.0 0 0 0 0 0 0
fractional
Ge shell 0.0  0.0  0.0 0.0000000 0 0 0
Te shell 0.24  0.24  0.24 0.0000000 0 0 0
Ge core 0.0  0.0  0.0 0.0000000 0 0 0
Te core 0.24  0.24  0.24 0.0000000 0 0 0

observables
energy ev
-7.3858 1.0
end

#ZB_10
cell 
5.125   5.125   5.125  60.0 60.0 60.0 0 0 0 0 0 0
fractional
Ge shell 0.0  0.0  0.0 0.0000000 0 0 0
Te shell 0.24  0.24  0.24 0.0000000 0 0 0
Ge core 0.0  0.0  0.0 0.0000000 0 0 0
Te core 0.24  0.24  0.24 0.0000000 0 0 0

observables
energy ev
-7.2613 1.0
end

#ZB_11
cell 
5.25   5.25   5.25  60.0 60.0 60.0 0 0 0 0 0 0
fractional
Ge shell 0.0  0.0  0.0 0.0000000 0 0 0
Te shell 0.24  0.24  0.24 0.0000000 0 0 0
Ge core 0.0  0.0  0.0 0.0000000 0 0 0
Te core 0.24  0.24  0.24 0.0000000 0 0 0

observables
energy ev
-7.0852 1.0
end

#########################################################################################
#------------------------DRS VaryCellSize------------------------------------------------
#########################################################################################

#ZB_2
vectors
0.116746 2.925824633 2.925824633
2.925824633 0.116746 2.925824633
2.925824633 2.925824633 0.116746
0 0 0 0 0 0
fractional
Ge shell 0.0  0.0  0.0 0.0000000 0 0 0
Te shell 0.465115805	0.465115805	0.465115805 0.0000000 0 0 0
Ge core 0.0  0.0  0.0 0.0000000 0 0 0
Te core 0.465115805	0.465115805	0.465115805 0.0000000 0 0 0

observables
energy ev
-7.6193 1.0
end

#ZB_3
vectors
0.116746 3.014485986 3.014485986
3.014485986 0.116746 3.014485986
3.014485986 3.014485986 0.116746
0 0 0 0 0 0
fractional
Ge shell 0.0  0.0  0.0 0.0000000 0 0 0
Te shell 0.465115805	0.465115805	0.465115805 0.0000000 0 0 0
Ge core 0.0  0.0  0.0 0.0000000 0 0 0
Te core 0.465115805	0.465115805	0.465115805 0.0000000 0 0 0

observables
energy ev
-7.8709 1.0
end

#ZB_4
vectors
0.116746 3.103956 3.103956
3.103956 0.116746 3.103956
3.103956 3.103956 0.116746
0 0 0 0 0 0
fractional
Ge shell 0.0  0.0  0.0 0.0000000 0 0 0
Te shell 0.465115805	0.465115805	0.465115805 0.0000000 0 0 0
Ge core 0.0  0.0  0.0 0.0000000 0 0 0
Te core 0.465115805	0.465115805	0.465115805 0.0000000 0 0 0

observables
energy ev
-7.9519 1.0
end

#ZB_5
vectors
0.116746 3.191808691 3.191808691
3.191808691 0.116746 3.191808691
3.191808691 3.191808691 0.116746
0 0 0 0 0 0
fractional
Ge shell 0.0  0.0  0.0 0.0000000 0 0 0
Te shell 0.465115805	0.465115805	0.465115805 0.0000000 0 0 0
Ge core 0.0  0.0  0.0 0.0000000 0 0 0
Te core 0.465115805	0.465115805	0.465115805 0.0000000 0 0 0

observables
energy ev
-7.9056 1.0
end

#ZB_6
vectors
0.116746 3.280470044 3.280470044
3.280470044 0.116746 3.280470044
3.280470044 3.280470044 0.116746
0 0 0 0 0 0
fractional
Ge shell 0.0  0.0  0.0 0.0000000 0 0 0
Te shell 0.465115805	0.465115805	0.465115805 0.0000000 0 0 0
Ge core 0.0  0.0  0.0 0.0000000 0 0 0
Te core 0.465115805	0.465115805	0.465115805 0.0000000 0 0 0

observables
energy ev
-7.7735 1.0
end

#ZB_7
vectors
0.116746 3.369131396 3.369131396
3.369131396 0.116746 3.369131396
3.369131396 3.369131396 0.116746
0 0 0 0 0 0
fractional
Ge shell 0.0  0.0  0.0 0.0000000 0 0 0
Te shell 0.465115805	0.465115805	0.465115805 0.0000000 0 0 0
Ge core 0.0  0.0  0.0 0.0000000 0 0 0
Te core 0.465115805	0.465115805	0.465115805 0.0000000 0 0 0

observables
energy ev
-7.5628 1.0
end


#########################################################################################
#------------------------Juarez Gra -----------------------------------------------------
#########################################################################################

#Gra_3
vectors
    -1.4507225897555310   -2.5127252330303950   -3.4901622138388990
    -1.4507225897555310    2.5127252330303950   -3.4901622138388990
     2.9014451794079920    0000000000   -3.4901622138442090
0 0 0 0 0 0
fractional
Ge shell 0.0  0.0  0.0 0 0 0 0
Te shell 0.2625000000000028  0.2625000000000028  0.2625000000000028 0 0 0 0
Ge core 0.0  0.0  0.0 0 0 0 0
Te core 0.2625000000000028  0.2625000000000028  0.2625000000000028 0 0 0 0

observables
energy ev
-.75006884E+01 0.1
end

#Gra_4
vectors
    -1.4658444061815940   -2.5389169873838090   -3.3134674661016000
    -1.4658444061815940    2.5389169873838090   -3.3134674661016000
     2.9316888122644390    0000000000   -3.3134674661089050
0 0 0 0 0 0
fractional
Ge shell 0.0  0.0  0.0 0 0 0 0
Te shell 0.2749999999999986  0.2749999999999986  0.2749999999999986 0 0 0 0
Ge core 0.0  0.0  0.0 0 0 0 0
Te core 0.2749999999999986  0.2749999999999986  0.2749999999999986 0 0 0 0

observables
energy ev
-.75703216E+01 0.1
end

#Gra_5
vectors
    -1.4732445720030340   -2.5517344505723630   -3.1706457023885390
    -1.4732445720030340    2.5517344505723630   -3.1706457023885390
     2.9464891439111960    0000000000   -3.1706457023974570
0 0 0 0 0 0
fractional
Ge shell 0.0  0.0  0.0 0 0 0 0
Te shell 0.2875000000000014  0.2875000000000014  0.2875000000000014 0 0 0 0
Ge core 0.0  0.0  0.0 0 0 0 0
Te core 0.2875000000000014  0.2875000000000014  0.2875000000000014 0 0 0 0

observables
energy ev
-.76311196E+01 0.1
end

#Gra_6
vectors
    -1.4764528192911850   -2.5572912978828550   -3.0502621157815810
    -1.4764528192911850    2.5572912978828550   -3.0502621157815810
     2.9529056384899380   -0000000001   -3.0502621157917580
0 0 0 0 0 0
fractional
Ge shell 0.0  0.0  0.0 0 0 0 0
Te shell 0.2999999999999972  0.2999999999999972  0.2999999999999972 0 0 0 0
Ge core 0.0  0.0  0.0 0 0 0 0
Te core 0.2999999999999972  0.2999999999999972  0.2999999999999972 0 0 0 0

observables
energy ev
-.76746008E+01 0.1
end

#Gra_7
vectors
    -1.4770577719429520   -2.5583391066137200   -2.9413603419088390
    -1.4770577719429520    2.5583391066137200   -2.9413603419088390
     2.9541155437967560   -0000000001   -2.9413603419202570
0 0 0 0 0 0
fractional
Ge shell 0.0  0.0  0.0 0 0 0 0
Te shell 0.3125000000000000  0.3125000000000000  0.3125000000000000 0 0 0 0
Ge core 0.0  0.0  0.0 0 0 0 0
Te core 0.3125000000000000  0.3125000000000000  0.3125000000000000 0 0 0 0

observables
energy ev
-.76970642E+01 0.1
end

#Gra_8
vectors
    -1.4791240976966650   -2.5619180878072960   -2.8485817915045570
    -1.4791240976966650    2.5619180878072960   -2.8485817915045570
     2.9582481953065490    0000000000   -2.8485817915171730
0 0 0 0 0 0
fractional
Ge shell 0.0  0.0  0.0 0 0 0 0
Te shell 0.3250000000000028  0.3250000000000028  0.3250000000000028 0 0 0 0
Ge core 0.0  0.0  0.0 0 0 0 0
Te core 0.3250000000000028  0.3250000000000028  0.3250000000000028 0 0 0 0

observables
energy ev
-.76979227E+01 0.1
end

#Gra_9
vectors
    -1.4797665268860130   -2.5630308078049420   -2.7630422243003630
    -1.4797665268860130    2.5630308078049420   -2.7630422243003630
     2.9595330536878360    0000000000   -2.7630422243139610
0 0 0 0 0 0
fractional
Ge shell 0.0  0.0  0.0 0 0 0 0
Te shell 0.3375000000000057  0.3375000000000057  0.3375000000000057 0 0 0 0
Ge core 0.0  0.0  0.0 0 0 0 0
Te core 0.3375000000000057  0.3375000000000057  0.3375000000000057 0 0 0 0

observables
energy ev
-.76786254E+01 0.1
end

#Gra_10
vectors
    -1.4801601310049370   -2.5637125501361150   -2.6864477733280400
    -1.4801601310049370    2.5637125501361150   -2.6864477733280400
     2.9603202619305260   -0000000002   -2.6864477733421050
0 0 0 0 0 0
fractional
Ge shell 0.0  0.0  0.0 0 0 0 0
Te shell 0.3500000000000014  0.3500000000000014  0.3500000000000014 0 0 0 0
Ge core 0.0  0.0  0.0 0 0 0 0
Te core 0.3500000000000014  0.3500000000000014  0.3500000000000014 0 0 0 0

observables
energy ev
-.76418353E+01 0.1
end

#Gra_11
vectors
    -1.4837368967268280   -2.5699076900938550   -2.6201331441545660
    -1.4837368967268280    2.5699076900938550   -2.6201331441545660
     2.9674737933761450   -0000000002   -2.6201331441694000
0 0 0 0 0 0
fractional
Ge shell 0.0  0.0  0.0 0 0 0 0
Te shell 0.3625000000000043  0.3625000000000043  0.3625000000000043 0 0 0 0
Ge core 0.0  0.0  0.0 0 0 0 0
Te core 0.3625000000000043  0.3625000000000043  0.3625000000000043 0 0 0 0

observables
energy ev
-.75910074E+01 0.1
end

#Gra_12
vectors
    -1.4775352806185810   -2.5591661759054920   -2.5449954806906320
    -1.4775352806185810    2.5591661759054920   -2.5449954806906320
     2.9550705611625620    0000000001   -2.5449954807058540
0 0 0 0 0 0
fractional
Ge shell 0.0  0.0  0.0 0 0 0 0
Te shell 0.3750000000000000  0.3750000000000000  0.3750000000000000 0 0 0 0
Ge core 0.0  0.0  0.0 0 0 0 0
Te core 0.3750000000000000  0.3750000000000000  0.3750000000000000 0 0 0 0

observables
energy ev
-.75343956E+01 0.1
end

#########################################################################################
#------------------------Juarez Gra -----------------------------------------------------
#########################################################################################


#########################################################################################
#------------------------Juarez BCC------------------------------------------------------
#########################################################################################

#BCC_5
vectors
     3.597291535  000  000
     000  3.597291535  000
     000  000  3.597291535
0 0 0 0 0 0
fractional
Ge shell 0000000000  0000000000  0000000000 0.0 0 0 0
Te shell 0.5000000000000000  0.5000000000000000  0.5000000000000000 -0.0 0 0 0
Ge core 0000000000  0000000000  0000000000 0.0 0 0 0
Te core 0.5000000000000000  0.5000000000000000  0.5000000000000000 -0.0 0 0 0

observables
energy ev
-7.2124 1.0
end

#BCC_6
vectors
     3.633998592  000  000
     000  3.633998592  000
     000  000  3.633998592
0 0 0 0 0 0
fractional
Ge shell 0000000000  0000000000  0000000000 0.0 0 0 0
Te shell 0.5000000000000000  0.5000000000000000  0.5000000000000000 -0.0 0 0 0
Ge core 0000000000  0000000000  0000000000 0.0 0 0 0
Te core 0.5000000000000000  0.5000000000000000  0.5000000000000000 -0.0 0 0 0

observables
energy ev
-7.2479 1.0
end

#BCC_7
vectors
     3.670705648  000  000
     000  3.670705648  000
     000  000  3.670705648
0 0 0 0 0 0
fractional
Ge shell 0000000000  0000000000  0000000000 0.0 0 0 0
Te shell 0.5000000000000000  0.5000000000000000  0.5000000000000000 -0.0 0 0 0
Ge core 0000000000  0000000000  0000000000 0.0 0 0 0
Te core 0.5000000000000000  0.5000000000000000  0.5000000000000000 -0.0 0 0 0

observables
energy ev
-7.2658 1.0
end

#BCC_7
vectors
     3.707412705  000  000
     000  3.707412705  000
     000  000  3.707412705
0 0 0 0 0 0
fractional
Ge shell 0000000000  0000000000  0000000000 0.0 0 0 0
Te shell 0.5000000000000000  0.5000000000000000  0.5000000000000000 -0.0 0 0 0
Ge core 0000000000  0000000000  0000000000 0.0 0 0 0
Te core 0.5000000000000000  0.5000000000000000  0.5000000000000000 -0.0 0 0 0

observables
energy ev
-7.2678 1.0
end

#BCC_7
vectors
     3.744119761  000  000
     000  3.744119761  000
     000  000  3.744119761
0 0 0 0 0 0
fractional
Ge shell 0000000000  0000000000  0000000000 0.0 0 0 0
Te shell 0.5000000000000000  0.5000000000000000  0.5000000000000000 -0.0 0 0 0
Ge core 0000000000  0000000000  0000000000 0.0 0 0 0
Te core 0.5000000000000000  0.5000000000000000  0.5000000000000000 -0.0 0 0 0

observables
energy ev
-7.2549 1.0
end

#BCC_7
vectors
     3.780826818  000  000
     000  3.780826818  000
     000  000  3.780826818
0 0 0 0 0 0
fractional
Ge shell 0000000000  0000000000  0000000000 0.0 0 0 0
Te shell 0.5000000000000000  0.5000000000000000  0.5000000000000000 -0.0 0 0 0
Ge core 0000000000  0000000000  0000000000 0.0 0 0 0
Te core 0.5000000000000000  0.5000000000000000  0.5000000000000000 -0.0 0 0 0

observables
energy ev
-7.2286 1.0
end

#BCC_7
vectors
     3.817533874  000  000
     000  3.817533874  000
     000  000  3.817533874
0 0 0 0 0 0
fractional
Ge shell 0000000000  0000000000  0000000000 0.0 0 0 0
Te shell 0.5000000000000000  0.5000000000000000  0.5000000000000000 -0.0 0 0 0
Ge core 0000000000  0000000000  0000000000 0.0 0 0 0
Te core 0.5000000000000000  0.5000000000000000  0.5000000000000000 -0.0 0 0 0

observables
energy ev
-7.1903 1.0
end

#########################################################################################
#------------------------Juarez BCC------------------------------------------------------
#########################################################################################


#########################################################################################
#------------------------Juarez DRS------------------------------------------------------
#########################################################################################

#DRS_13
vectors
    -1.2208844124212990   -2.1146338323810710   -3.9039803951883350
    -1.2208844124212990    2.1146338323810710   -3.9039803951883350
     2.4417688247376250    0000000000   -3.9039803951867390
0 0 0 0 0 0
fractional
Ge shell 0.0  0.0  0.0 0 0 0 0
Te shell 0.4500000000000028  0.4500000000000028  0.4500000000000028 0 0 0 0
Ge core 0.0  0.0  0.0 0 0 0 0
Te core 0.4500000000000028  0.4500000000000028  0.4500000000000028 0 0 0 0

observables
energy ev
-.78931719E+01 3.0
end

#DRS_14
vectors
    -1.2210169832329800   -2.1148634517641730   -3.7962945637263440
    -1.2210169832329800    2.1148634517641730   -3.7962945637263440
     2.4420339663638790    0000000000   -3.7962945637256940
0 0 0 0 0 0
fractional
Ge shell 0.0  0.0  0.0 0 0 0 0
Te shell 0.4562499999999972  0.4562499999999972  0.4562499999999972 0 0 0 0
Ge core 0.0  0.0  0.0 0 0 0 0
Te core 0.4562499999999972  0.4562499999999972  0.4562499999999972 0 0 0 0

observables
energy ev
-.79209029E+01 3.0
end

#DRS_15
vectors
    -1.2201492102048290   -2.1133604247885020   -3.7058721310094360
    -1.2201492102048290    2.1133604247885020   -3.7058721310094360
     2.4402984203079840    0000000000   -3.7058721310088960
0 0 0 0 0 0
fractional
Ge shell 0.0  0.0  0.0 0 0 0 0
Te shell 0.4624999999999986  0.4624999999999986  0.4624999999999986 0 0 0 0
Ge core 0.0  0.0  0.0 0 0 0 0
Te core 0.4624999999999986  0.4624999999999986  0.4624999999999986 0 0 0 0

observables
energy ev
-.79365583E+01 3.0
end

#DRS_16
vectors
    -1.2212362074342580   -2.1152431592193750   -3.5781838377528920
    -1.2212362074342580    2.1152431592193750   -3.5781838377528920
     2.4424724147702290    0000000000   -3.5781838377535280
0 0 0 0 0 0
fractional
Ge shell 0.0  0.0  0.0 0 0 0 0
Te shell 0.4750000000000014  0.4750000000000014  0.4750000000000014 0 0 0 0
Ge core 0.0  0.0  0.0 0 0 0 0
Te core 0.4750000000000014  0.4750000000000014  0.4750000000000014 0 0 0 0

observables
energy ev
-.79385052E+01 3.0
end

#DRS_17
vectors
    -1.2247627118355760   -2.1213512440163360   -3.4977028974609880
    -1.2247627118355760    2.1213512440163360   -3.4977028974609880
     2.4495254235748170    0000000000   -3.4977028974623680
0 0 0 0 0 0
fractional
Ge shell 0.0  0.0  0.0 0 0 0 0
Te shell 0.4874999999999972  0.4874999999999972  0.4874999999999972 0 0 0 0
Ge core 0.0  0.0  0.0 0 0 0 0
Te core 0.4874999999999972  0.4874999999999972  0.4874999999999972 0 0 0 0

observables
energy ev
-.79202110E+01 3.0
end

#DRS_18
vectors
    -1.2273423652887860   -2.1258193348623260   -3.4712291988172140
    -1.2273423652887860    2.1258193348623260   -3.4712291988172140
     2.4546847304810730    0000000000   -3.4712291988186120
0 0 0 0 0 0
fractional
Ge shell 0.0  0.0  0.0 0 0 0 0
Te shell 0.5000000000000000  0.5000000000000000  0.5000000000000000 0 0 0 0
Ge core 0.0  0.0  0.0 0 0 0 0
Te core 0.5000000000000000  0.5000000000000000  0.5000000000000000 0 0 0 0

observables
energy ev
-.79091959E+01 3.0
end

#DRS_19
vectors
    -1.2247133984998510   -2.1212658308133760   -3.4977464430781300
    -1.2247133984998510    2.1212658308133760   -3.4977464430781300
     2.4494267969033690    0000000000   -3.4977464430795090
0 0 0 0 0 0
fractional
Ge shell 0.0  0.0  0.0 0 0 0 0
Te shell 0.5125000000000028  0.5125000000000028  0.5125000000000028 0 0 0 0
Ge core 0.0  0.0  0.0 0 0 0 0
Te core 0.5125000000000028  0.5125000000000028  0.5125000000000028 0 0 0 0

observables
energy ev
-.79202092E+01 3.0
end

#DRS_20
vectors
    -1.2215034447410500   -2.1157060278124050   -3.5780908814872600
    -1.2215034447410500    2.1157060278124050   -3.5780908814872600
     2.4430068893838150    0000000000   -3.5780908814878940
0 0 0 0 0 0
fractional
Ge shell 0.0  0.0  0.0 0 0 0 0
Te shell 0.5249999999999986  0.5249999999999986  0.5249999999999986 0 0 0 0
Ge core 0.0  0.0  0.0 0 0 0 0
Te core 0.5249999999999986  0.5249999999999986  0.5249999999999986 0 0 0 0

observables
energy ev
-.79385035E+01 3.0
end

#DRS_21
vectors
    -1.2201514516508420   -2.1133643070869180   -3.7050973370250250
    -1.2201514516508420    2.1133643070869180   -3.7050973370250250
     2.4403029032000530    0000000000   -3.7050973370244900
0 0 0 0 0 0
fractional
Ge shell 0.0  0.0  0.0 0 0 0 0
Te shell 0.5375000000000014  0.5375000000000014  0.5375000000000014 0 0 0 0
Ge core 0.0  0.0  0.0 0 0 0 0
Te core 0.5375000000000014  0.5375000000000014  0.5375000000000014 0 0 0 0

observables
energy ev
-.79365510E+01 3.0
end

#DRS_22
vectors
    -1.2205985044141270   -2.1141386251851620   -3.7918352317122390
    -1.2205985044141270    2.1141386251851620   -3.7918352317122390
     2.4411970087242110    0000000000   -3.7918352317109050
0 0 0 0 0 0
fractional
Ge shell 0.0  0.0  0.0 0 0 0 0
Te shell 0.5437500000000028  0.5437500000000028  0.5437500000000028 0 0 0 0
Ge core 0.0  0.0  0.0 0 0 0 0
Te core 0.5437500000000028  0.5437500000000028  0.5437500000000028 0 0 0 0

observables
energy ev
-.79208907E+01 3.0
end

#DRS_23
vectors
    -1.2210546940076370   -2.1149287687372780   -3.9031239595441700
    -1.2210546940076370    2.1149287687372780   -3.9031239595441700
     2.4421093879081120    0000000000   -3.9031239595417570
0 0 0 0 0 0
fractional
Ge shell 0.0  0.0  0.0 0 0 0 0
Te shell 0.5499999999999972  0.5499999999999972  0.5499999999999972 0 0 0 0
Ge core 0.0  0.0  0.0 0 0 0 0
Te core 0.5499999999999972  0.5499999999999972  0.5499999999999972 0 0 0 0

observables
energy ev
-.78931767E+01 3.0
end

#########################################################################################
#------------------------Juarez DRS------------------------------------------------------
#########################################################################################



#########################################################################################
#------------------------DRS-------------------------------------------------------------
#########################################################################################



#DRS_16
cell
4.39 4.39 4.39 57.7 57.7 57.7 0 0 0 0 0 0
fractional
Ge shell 0.0  0.0  0.0 0 0 0 0
Ge core 0.0  0.0  0.0 0  0 0 0
Te shell 0.4750000000000014  0.4750000000000014  0.4750000000000014 0  0 0 0
Te core 0.4750000000000014  0.4750000000000014  0.4750000000000014 0  0 0 0

observables
energy ev
-.79385052E+01 0.1
end
space
P 1

#frequency 1 0.0 0.0 1.0 

#########################################################################################
#------------------------DRS-------------------------------------------------------------
#########################################################################################

#########################################################################################
#------------------------Elastic Constant------------------------------------------------
#########################################################################################
observables
elastic 5
 1 1  77.55  0.1
 1 2  32.07  0.1
 1 3  22.9  0.1
 3 3  45.61  0.1
 4 4  22.74  0.1
end
# 1 4  24.40  0.25
#########################################################################################
#------------------------Piezoelectric Tensors-------------------------------------------
#########################################################################################
#observables 
#piezoelectric strain
# 1 y 1.10570 1.0
#piezoelectric strain
# 2 y -1.10570 1.0
#piezoelectric strain
# 1 z  0.74058 1.0
#piezoelectric strain
# 2 z  0.74058 1.0
#piezoelectric strain
# 3 z  -0.40686 1.0
#piezoelectric strain
# 3 x  1.10570 1.0
#piezoelectric strain
# 5 y  0.70403 1.0
#piezoelectric strain
# 6 x  0.70402 1.0
#end
#########################################################################################
#------------------------Born Charge-----------------------------------------------------
#########################################################################################
observables
bornq 6 
 1 yy 5.07 10.0 
 1 zz 5.04 10.0 
 1 xx 2.77 10.0 
 2 yy -5.10 10.0 
 2 zz -5.06 10.0 
 2 xx -2.76 10.0 
end

#########################################################################################
#------------------------Born Charge-----------------------------------------------------
#########################################################################################


#########################################################################################
#------------------------Dielectric------------------------------------------------------
#########################################################################################	
#Fit to core-core cus high freq affects fast responding electrons
observables
hfdlc 3
 1 1 0.913 1.0 
 2 2 0.913 1.0 
 3 3 0.907 1.0 
end