fit fbfgs optimize prop

species
Sb core 0.0
Te1 core -0.00
Te2 core -0.0
end

shift
-12.0

vary
shift
end

#vary
#charge 2
#Ge 
#Te
#end


#########################################################################################
#------------------------Fit Potential---------------------------------------------------
#########################################################################################

cutp 8.0 voter

#------------------------Sb--------------------------------------------------------------
#First NN
morse abs
Sb core Te2 core 	0.11	4.32	3.02		0.0 0.0 12.0		1 1 0
morse abs
Sb core Te1 core 	0.072	1.64	3.3		0.0 0.0 12.0		1 1 1
#Second NN
morse abs
Sb core Sb core  	0.072  	0.94	4.29	 	0.0 0.0 12.0    	1 1 1

#------------------------Te1--------------------------------------------------------------
#Second NN
morse abs
Te1 core Te1 core  	0.065	1.05	4.36	 	0.0 0.0 12.0     	1 1 0
#morse abs
#Te1 core Te2 core  	0.058	1.01	4.34	 	0.0 0.0 12.0     	1 1 0

#------------------------Te2--------------------------------------------------------------
#Second NN
morse abs
Te2 core Te2 core  	0.068	2.75	3.90	 	0.0 0.0 12.0     	1 1 0
morse abs
Te2 core Te2 core 	0.055	1.12	4.30		0.0 0.0 12.0		1 1 0

dump every sb2te3.res

#########################################################################################
#------------------------Volume Expansion------------------------------------------------
#########################################################################################
#1
vectors
-2.303943303	0	9.608265695
1.151971651	-1.995273429	9.608265695
1.151971651	1.995273429	9.608265695
0 0 0 0 0 0
fractional
Sb core	0.396796585	0.396796585	0.396796585	0	0 0 0
Sb core	0.603203403	0.603203403	0.603203403  0	0 0 0
Te1 core	0	0	0				  0	0 0 0
Te2 core	0.784571335	0.784571335	0.784571335    0	0 0 0
Te2 core	0.215428654	0.215428654	0.215428654    0	0 0 0

observables
energy ev
-16.42 0.2
end

#2
vectors
-2.354029027	0	9.817141036
1.177014513	-2.038648938	9.817141036
1.177014513	2.038648938	9.817141036
0 0 0 0 0 0
fractional
Sb core	0.396796585	0.396796585	0.396796585	0	0 0 0
Sb core	0.603203403	0.603203403	0.603203403  0	0 0 0
Te1 core	0	0	0				  0	0 0 0
Te2 core	0.784571335	0.784571335	0.784571335    0	0 0 0
Te2 core	0.215428654	0.215428654	0.215428654    0	0 0 0

observables
energy ev
-17.33 0.2
end

#3
vectors
-2.404114751	0	10.02601638
1.202057375	-2.082024447	10.02601638
1.202057375	2.082024447	10.02601638
0 0 0 0 0 0
fractional
Sb core	0.396796585	0.396796585	0.396796585	0	0 0 0
Sb core	0.603203403	0.603203403	0.603203403  0	0 0 0
Te1 core	0	0	0				  0	0 0 0
Te2 core	0.784571335	0.784571335	0.784571335    0	0 0 0
Te2 core	0.215428654	0.215428654	0.215428654    0	0 0 0

observables
energy ev
-17.91 0.2
end

#4
vectors
-2.454200475	0	10.23489172
1.227100237	-2.125399957	10.23489172
1.227100237	2.125399957	10.23489172
0 0 0 0 0 0
fractional
Sb core	0.396796585	0.396796585	0.396796585	0	0 0 0
Sb core	0.603203403	0.603203403	0.603203403  0	0 0 0
Te1 core	0	0	0				  0	0 0 0
Te2 core	0.784571335	0.784571335	0.784571335    0	0 0 0
Te2 core	0.215428654	0.215428654	0.215428654    0	0 0 0

observables
energy ev
-18.23 0.5
end

#5
vectors
-2.504286199	0	10.44376706
1.252143099	-2.168775466	10.44376706
1.252143099	2.168775466	10.44376706
0 0 0 0 0 0
fractional
Sb core	0.396796585	0.396796585	0.396796585	0	0 0 0
Sb core	0.603203403	0.603203403	0.603203403  0	0 0 0
Te1 core	0	0	0				  0	0 0 0
Te2 core	0.784571335	0.784571335	0.784571335    0	0 0 0
Te2 core	0.215428654	0.215428654	0.215428654    0	0 0 0

observables
energy ev
-18.32 0.5
end

#6
vectors
-2.554371923	0	10.6526424
1.277185961	-2.212150975	10.6526424
1.277185961	2.212150975	10.6526424
0 0 0 0 0 0
fractional
Sb core	0.396796585	0.396796585	0.396796585	0	0 0 0
Sb core	0.603203403	0.603203403	0.603203403  0	0 0 0
Te1 core	0	0	0				  0	0 0 0
Te2 core	0.784571335	0.784571335	0.784571335    0	0 0 0
Te2 core	0.215428654	0.215428654	0.215428654    0	0 0 0

observables
energy ev
-18.24 0.5
end

#7
vectors
-2.604457647	0	10.86151774
1.302228823	-2.255526485	10.86151774
1.302228823	2.255526485	10.86151774	
0 0 0 0 0 0
fractional
Sb core	0.396796585	0.396796585	0.396796585	0	0 0 0
Sb core	0.603203403	0.603203403	0.603203403  0	0 0 0
Te1 core	0	0	0				  0	0 0 0
Te2 core	0.784571335	0.784571335	0.784571335    0	0 0 0
Te2 core	0.215428654	0.215428654	0.215428654    0	0 0 0

observables
energy ev
-18.01 0.2
end

#8
vectors
-2.654543371	0	11.07039308
1.327271685	-2.298901994	11.07039308
1.327271685	2.298901994	11.07039308	
0 0 0 0 0 0
fractional
Sb core	0.396796585	0.396796585	0.396796585	0	0 0 0
Sb core	0.603203403	0.603203403	0.603203403  0	0 0 0
Te1 core	0	0	0				  0	0 0 0
Te2 core	0.784571335	0.784571335	0.784571335    0	0 0 0
Te2 core	0.215428654	0.215428654	0.215428654    0	0 0 0

observables
energy ev
-17.66 0.2
end

#9
vectors
-2.704629095	0	11.27926842
1.352314547	-2.342277503	11.27926842
1.352314547	2.342277503	11.27926842	
0 0 0 0 0 0
fractional
Sb core	0.396796585	0.396796585	0.396796585	0	0 0 0
Sb core	0.603203403	0.603203403	0.603203403  0	0 0 0
Te1 core	0	0	0				  0	0 0 0
Te2 core	0.784571335	0.784571335	0.784571335    0	0 0 0
Te2 core	0.215428654	0.215428654	0.215428654    0	0 0 0

observables
energy ev
-17.23 0.2
end

#10
vectors
-2.754714819	0	11.48814377
1.377357409	-2.385653013	11.48814377
1.377357409	2.385653013	11.48814377	
0 0 0 0 0 0
fractional
Sb core	0.396796585	0.396796585	0.396796585	0	0 0 0
Sb core	0.603203403	0.603203403	0.603203403  0	0 0 0
Te1 core	0	0	0				  0	0 0 0
Te2 core	0.784571335	0.784571335	0.784571335    0	0 0 0
Te2 core	0.215428654	0.215428654	0.215428654    0	0 0 0

observables
energy ev
-16.72 0.2
end

#11
vectors
-2.804800543	0	11.69701911
1.402400271	-2.429028522	11.69701911
1.402400271	2.429028522	11.69701911	
0 0 0 0 0 0
fractional
Sb core	0.396796585	0.396796585	0.396796585	0	0 0 0
Sb core	0.603203403	0.603203403	0.603203403  0	0 0 0
Te1 core	0	0	0				  0	0 0 0
Te2 core	0.784571335	0.784571335	0.784571335    0	0 0 0
Te2 core	0.215428654	0.215428654	0.215428654    0	0 0 0

observables
energy ev
-16.16 0.2
end


#########################################################################################
#------------------------Bulk Modulus/Elastic Constant 44--------------------------------
#########################################################################################

#Relaxed
cell
10.7398 10.7398 10.7398 23.3 23.3 23.3 0 0 0 0 0 0
fractional
Sb core	0.396796585	0.396796585	0.396796585	0	0 0 0
Sb core	0.603203403	0.603203403	0.603203403  0	0 0 0
Te1 core	0	0	0				  0	0 0 0
Te2 core	0.784571335	0.784571335	0.784571335    0	0 0 0
Te2 core	0.215428654	0.215428654	0.215428654    0	0 0 0

observables
energy ev
-18.31 0.1
end

space
P 1

observables
elastic 8
 1 1  64.998  0.1
 2 2  64.998  0.1
 1 2  15.38046  0.2
 1 3  11.74897  0.2
 3 3 15.9 0.2
 4 4  24.80883  0.2
 5 5  11.80193  0.2
 6 6  11.80193  0.2
end
# 1 5  7.34913  0.2

#########################################################################################
#------------------------Piezoelectric Tensors-------------------------------------------
#########################################################################################
#observables
#piezoelectric 6
#stress 5 x -4.99 1.0
#stress 1 y  0.53 1.0
#stress 3 x -0.03 1.0
#stress 3 z -2.96 1.0

#strain 5 x -0.16902 10.0
#strain 1 y  0.05021 10.0
#strain 3 x  0.01246 10.0
#strain 3 z -0.06117 10.0


#end


#########################################################################################
#------------------------Born Charge-----------------------------------------------------
#########################################################################################
#observables
#bornq 6 
# 1 xx 6.897 100.0 
# 1 yy 6.897 100.0 
# 1 zz 6.897 100.0 
 
# 1 xy 4.574 100.0 
# 1 xz 4.574 100.0 
# 1 yz 4.574 100.0 
 
# 1 yx -4.574 100.0 
# 1 zx -4.574 100.0 
# 1 zy -4.574 100.0

# 2 xx -6.894 100.0 
# 2 yy -6.894 100.0 
# 2 zz -6.894 100.0 
 
# 2 xy -4.571 100.0 
# 2 xz -4.571 100.0 
# 2 yz -4.571 100.0 
 
# 2 yx 4.571 100.0 
# 2 zx 4.571 100.0 
# 2 zy 4.571 100.0
#end


#########################################################################################
#------------------------Dielectric------------------------------------------------------
#########################################################################################
	
#Fit to core-shell cus high freq affects fast responding electrons
#observables

#Fit to core-core cus high freq affects fast responding electrons
#hfdlc 3
# 1 1 0.642171 1.0
# 2 2 0.642171 1.0
# 3 3 0.636770 1.0
#end

#Fit to ion charges
#observables
#sdlc 3
# 1 1 42.234368 1.0
# 2 2 42.234368 1.0
# 3 3 57.716705 1.0
#end

#########################################################################################
#------------------------Relax Structure-------------------------------------------------
#########################################################################################

#Relaxed
cell
10.7398 10.7398 10.7398 23.3 23.3 23.3 1 1 1 1 1 1
fractional
Sb core	0.396796585	0.396796585	0.396796585	0	0 0 0
Sb core	0.603203403	0.603203403	0.603203403  0	0 0 0
Te1 core	0	0	0				  0	0 0 0
Te2 core	0.784571335	0.784571335	0.784571335    0	0 0 0
Te2 core	0.215428654	0.215428654	0.215428654    0	0 0 0
