fit fbfgs optimize prop

species
Sb core 0.109
Te1 core 0.16
Te2 core -0.189
end

shift
-14.6

vary
shift
end

vary
charge 3
Sb 
Te1
Te2
end


#########################################################################################
#------------------------Fit Potential---------------------------------------------------
#########################################################################################

cutp 8.0 voter

#------------------------Sb--------------------------------------------------------------
#First NN
morse abs
Sb core Te2 core 	0.159	3.46	3.046		0.0 0.0 12.0		1 1 1
morse abs
Sb core Te1 core 	0.091	1.72	3.34		0.0 0.0 12.0		1 1 1
#Second NN
#morse abs
#Sb core Sb core  	0.054  	1.03	4.34	 	0.0 0.0 12.0    	1 1 1

#------------------------Te1--------------------------------------------------------------
#Second NN
morse abs
Te1 core Te1 core  	0.05	1.05	4.39	 	0.0 0.0 12.0     	1 1 1
morse abs
Te1 core Te2 core  	0.019	1.01	4.52	 	0.0 0.0 12.0     	1 1 1

#------------------------Te2--------------------------------------------------------------
#Second NN
morse abs
Te2 core Te2 core  	0.1	3.5	3.9	 	0.0 0.0 12.0     	1 1 1
#morse abs
#Te2 core Te2 core 	0.067	1.07	4.33		0.0 0.0 12.0		1 1 1

dump every sb2te3.res


#########################################################################################
#------------------------Sb 111 (Sb1)----------------------------------------------------
#########################################################################################
#1
vectors
-2.504286199	0	10.44376706
1.252143099	-2.168775466	10.44376706
1.252143099	2.168775466	10.44376706
0 0 0 0 0 0
fractional
Sb core	0.369020824	0.369020824	0.369020824	0	0 0 0
Sb core	0.603203403	0.603203403	0.603203403  0	0 0 0
Te1 core	0	0	0				  0	0 0 0
Te2 core	0.784571335	0.784571335	0.784571335    0	0 0 0
Te2 core	0.215428654	0.215428654	0.215428654    0	0 0 0

observables
energy ev
-16.0666 0.0
end

#2
vectors
-2.504286199	0	10.44376706
1.252143099	-2.168775466	10.44376706
1.252143099	2.168775466	10.44376706
0 0 0 0 0 0
fractional
Sb core	0.37298879	0.37298879	0.37298879	0	0 0 0
Sb core	0.603203403	0.603203403	0.603203403  0	0 0 0
Te1 core	0	0	0				  0	0 0 0
Te2 core	0.784571335	0.784571335	0.784571335    0	0 0 0
Te2 core	0.215428654	0.215428654	0.215428654    0	0 0 0

observables
energy ev
-16.5845 0.0
end

#3
vectors
-2.504286199	0	10.44376706
1.252143099	-2.168775466	10.44376706
1.252143099	2.168775466	10.44376706
0 0 0 0 0 0
fractional
Sb core	0.376956756	0.376956756	0.376956756	0	0 0 0
Sb core	0.603203403	0.603203403	0.603203403  0	0 0 0
Te1 core	0	0	0				  0	0 0 0
Te2 core	0.784571335	0.784571335	0.784571335    0	0 0 0
Te2 core	0.215428654	0.215428654	0.215428654    0	0 0 0

observables
energy ev
-17.0602 0.0
end

#4
vectors
-2.504286199	0	10.44376706
1.252143099	-2.168775466	10.44376706
1.252143099	2.168775466	10.44376706
0 0 0 0 0 0
fractional
Sb core	0.380924722	0.380924722	0.380924722	0	0 0 0
Sb core	0.603203403	0.603203403	0.603203403  0	0 0 0
Te1 core	0	0	0				  0	0 0 0
Te2 core	0.784571335	0.784571335	0.784571335    0	0 0 0
Te2 core	0.215428654	0.215428654	0.215428654    0	0 0 0

observables
energy ev
-17.4809 0.0
end

#5
vectors
-2.504286199	0	10.44376706
1.252143099	-2.168775466	10.44376706
1.252143099	2.168775466	10.44376706
0 0 0 0 0 0
fractional
Sb core	0.384892687	0.384892687	0.384892687	0	0 0 0
Sb core	0.603203403	0.603203403	0.603203403  0	0 0 0
Te1 core	0	0	0				  0	0 0 0
Te2 core	0.784571335	0.784571335	0.784571335    0	0 0 0
Te2 core	0.215428654	0.215428654	0.215428654    0	0 0 0

observables
energy ev
-17.8314 0.0
end

#6
vectors
-2.504286199	0	10.44376706
1.252143099	-2.168775466	10.44376706
1.252143099	2.168775466	10.44376706
0 0 0 0 0 0
fractional
Sb core	0.388860653	0.388860653	0.388860653	0	0 0 0
Sb core	0.603203403	0.603203403	0.603203403  0	0 0 0
Te1 core	0	0	0				  0	0 0 0
Te2 core	0.784571335	0.784571335	0.784571335    0	0 0 0
Te2 core	0.215428654	0.215428654	0.215428654    0	0 0 0

observables
energy ev
-18.0950 0.0
end

#7
vectors
-2.504286199	0	10.44376706
1.252143099	-2.168775466	10.44376706
1.252143099	2.168775466	10.44376706
0 0 0 0 0 0
fractional
Sb core	0.392828619	0.392828619	0.392828619	0	0 0 0
Sb core	0.603203403	0.603203403	0.603203403  0	0 0 0
Te1 core	0	0	0				  0	0 0 0
Te2 core	0.784571335	0.784571335	0.784571335    0	0 0 0
Te2 core	0.215428654	0.215428654	0.215428654    0	0 0 0

observables
energy ev
-18.2582 0.0
end










#Relaxed
vectors
-2.504286199	0	10.44376706
1.252143099	-2.168775466	10.44376706
1.252143099	2.168775466	10.44376706
0 0 0 0 0 0
fractional
Sb core	0.396796585	0.396796585	0.396796585	0	0 0 0
Sb core	0.603203403	0.603203403	0.603203403  0	0 0 0
Te1 core	0	0	0				  0	0 0 0
Te2 core	0.784571335	0.784571335	0.784571335    0	0 0 0
Te2 core	0.215428654	0.215428654	0.215428654    0	0 0 0

observables
energy ev
-18.3130 0.0
end










#9
vectors
-2.504286199	0	10.44376706
1.252143099	-2.168775466	10.44376706
1.252143099	2.168775466	10.44376706
0 0 0 0 0 0
fractional
Sb core	0.400764551	0.400764551	0.400764551	0	0 0 0
Sb core	0.603203403	0.603203403	0.603203403  0	0 0 0
Te1 core	0	0	0				  0	0 0 0
Te2 core	0.784571335	0.784571335	0.784571335    0	0 0 0
Te2 core	0.215428654	0.215428654	0.215428654    0	0 0 0

observables
energy ev
-18.2579 0.0
end

#10
vectors
-2.504286199	0	10.44376706
1.252143099	-2.168775466	10.44376706
1.252143099	2.168775466	10.44376706
0 0 0 0 0 0
fractional
Sb core	0.404732517	0.404732517	0.404732517	0	0 0 0
Sb core	0.603203403	0.603203403	0.603203403  0	0 0 0
Te1 core	0	0	0				  0	0 0 0
Te2 core	0.784571335	0.784571335	0.784571335    0	0 0 0
Te2 core	0.215428654	0.215428654	0.215428654    0	0 0 0

observables
energy ev
-18.0968 0.0
end

#11
vectors
-2.504286199	0	10.44376706
1.252143099	-2.168775466	10.44376706
1.252143099	2.168775466	10.44376706
0 0 0 0 0 0
fractional
Sb core	0.408700482	0.408700482	0.408700482	0	0 0 0
Sb core	0.603203403	0.603203403	0.603203403  0	0 0 0
Te1 core	0	0	0				  0	0 0 0
Te2 core	0.784571335	0.784571335	0.784571335    0	0 0 0
Te2 core	0.215428654	0.215428654	0.215428654    0	0 0 0

observables
energy ev
-17.8387 0.0
end

#12
vectors
-2.504286199	0	10.44376706
1.252143099	-2.168775466	10.44376706
1.252143099	2.168775466	10.44376706
0 0 0 0 0 0
fractional
Sb core	0.412668448	0.412668448	0.412668448	0	0 0 0
Sb core	0.603203403	0.603203403	0.603203403  0	0 0 0
Te1 core	0	0	0				  0	0 0 0
Te2 core	0.784571335	0.784571335	0.784571335    0	0 0 0
Te2 core	0.215428654	0.215428654	0.215428654    0	0 0 0

observables
energy ev
-17.4968 0.0
end

#13
vectors
-2.504286199	0	10.44376706
1.252143099	-2.168775466	10.44376706
1.252143099	2.168775466	10.44376706
0 0 0 0 0 0
fractional
Sb core	0.416636414	0.416636414	0.416636414	0	0 0 0
Sb core	0.603203403	0.603203403	0.603203403  0	0 0 0
Te1 core	0	0	0				  0	0 0 0
Te2 core	0.784571335	0.784571335	0.784571335    0	0 0 0
Te2 core	0.215428654	0.215428654	0.215428654    0	0 0 0

observables
energy ev
-17.0889 0.0
end

#14
vectors
-2.504286199	0	10.44376706
1.252143099	-2.168775466	10.44376706
1.252143099	2.168775466	10.44376706
0 0 0 0 0 0
fractional
Sb core	0.42060438	0.42060438	0.42060438	0	0 0 0
Sb core	0.603203403	0.603203403	0.603203403  0	0 0 0
Te1 core	0	0	0				  0	0 0 0
Te2 core	0.784571335	0.784571335	0.784571335    0	0 0 0
Te2 core	0.215428654	0.215428654	0.215428654    0	0 0 0

observables
energy ev
-16.6354 0.0
end

#15
vectors
-2.504286199	0	10.44376706
1.252143099	-2.168775466	10.44376706
1.252143099	2.168775466	10.44376706
0 0 0 0 0 0
fractional
Sb core	0.424572346	0.424572346	0.424572346	0	0 0 0
Sb core	0.603203403	0.603203403	0.603203403  0	0 0 0
Te1 core	0	0	0				  0	0 0 0
Te2 core	0.784571335	0.784571335	0.784571335    0	0 0 0
Te2 core	0.215428654	0.215428654	0.215428654    0	0 0 0

observables
energy ev
-16.1628 0.0
end


#########################################################################################
#------------------------Sb 111 (Sb2)----------------------------------------------------
#########################################################################################
#1
vectors
-2.504286199	0	10.44376706
1.252143099	-2.168775466	10.44376706
1.252143099	2.168775466	10.44376706
0 0 0 0 0 0
fractional
Sb core	0.396796585	0.396796585	0.396796585	0	0 0 0
Sb core	0.560979165	0.560979165	0.560979165  0	0 0 0
Te1 core	0	0	0				  0	0 0 0
Te2 core	0.784571335	0.784571335	0.784571335    0	0 0 0
Te2 core	0.215428654	0.215428654	0.215428654    0	0 0 0

observables
energy ev
-14.70 0.0
end

#2
vectors
-2.504286199	0	10.44376706
1.252143099	-2.168775466	10.44376706
1.252143099	2.168775466	10.44376706
0 0 0 0 0 0
fractional
Sb core	0.396796585	0.396796585	0.396796585	0	0 0 0
Sb core	0.567011199	0.567011199	0.567011199  0	0 0 0
Te1 core	0	0	0				  0	0 0 0
Te2 core	0.784571335	0.784571335	0.784571335    0	0 0 0
Te2 core	0.215428654	0.215428654	0.215428654    0	0 0 0

observables
energy ev
-15.23 0.0
end

#3
vectors
-2.504286199	0	10.44376706
1.252143099	-2.168775466	10.44376706
1.252143099	2.168775466	10.44376706
0 0 0 0 0 0
fractional
Sb core	0.396796585	0.396796585	0.396796585	0	0 0 0
Sb core	0.573043233	0.573043233	0.573043233  0	0 0 0
Te1 core	0	0	0				  0	0 0 0
Te2 core	0.784571335	0.784571335	0.784571335    0	0 0 0
Te2 core	0.215428654	0.215428654	0.215428654    0	0 0 0

observables
energy ev
-15.88 0.0
end

#4
vectors
-2.504286199	0	10.44376706
1.252143099	-2.168775466	10.44376706
1.252143099	2.168775466	10.44376706
0 0 0 0 0 0
fractional
Sb core	0.396796585	0.396796585	0.396796585	0	0 0 0
Sb core	0.579075267	0.579075267	0.579075267  0	0 0 0
Te1 core	0	0	0				  0	0 0 0
Te2 core	0.784571335	0.784571335	0.784571335    0	0 0 0
Te2 core	0.215428654	0.215428654	0.215428654    0	0 0 0

observables
energy ev
-16.60 0.0
end

#5
vectors
-2.504286199	0	10.44376706
1.252143099	-2.168775466	10.44376706
1.252143099	2.168775466	10.44376706
0 0 0 0 0 0
fractional
Sb core	0.396796585	0.396796585	0.396796585	0	0 0 0
Sb core	0.585107301	0.585107301	0.585107301  0	0 0 0
Te1 core	0	0	0				  0	0 0 0
Te2 core	0.784571335	0.784571335	0.784571335    0	0 0 0
Te2 core	0.215428654	0.215428654	0.215428654    0	0 0 0

observables
energy ev
-17.27 0.0
end

#6
vectors
-2.504286199	0	10.44376706
1.252143099	-2.168775466	10.44376706
1.252143099	2.168775466	10.44376706
0 0 0 0 0 0
fractional
Sb core	0.396796585	0.396796585	0.396796585	0	0 0 0
Sb core	0.591139335	0.591139335	0.591139335  0	0 0 0
Te1 core	0	0	0				  0	0 0 0
Te2 core	0.784571335	0.784571335	0.784571335    0	0 0 0
Te2 core	0.215428654	0.215428654	0.215428654    0	0 0 0

observables
energy ev
-17.83 0.0
end

#7
vectors
-2.504286199	0	10.44376706
1.252143099	-2.168775466	10.44376706
1.252143099	2.168775466	10.44376706
0 0 0 0 0 0
fractional
Sb core	0.396796585	0.396796585	0.396796585	0	0 0 0
Sb core	0.597171369	0.597171369	0.597171369  0	0 0 0
Te1 core	0	0	0				  0	0 0 0
Te2 core	0.784571335	0.784571335	0.784571335    0	0 0 0
Te2 core	0.215428654	0.215428654	0.215428654    0	0 0 0

observables
energy ev
-18.19 0.0
end









#Relaxed
vectors
-2.504286199	0	10.44376706
1.252143099	-2.168775466	10.44376706
1.252143099	2.168775466	10.44376706
0 0 0 0 0 0
fractional
Sb core	0.396796585	0.396796585	0.396796585	0	0 0 0
Sb core	0.603203403	0.603203403	0.603203403  0	0 0 0
Te1 core	0	0	0				  0	0 0 0
Te2 core	0.784571335	0.784571335	0.784571335    0	0 0 0
Te2 core	0.215428654	0.215428654	0.215428654    0	0 0 0

observables
energy ev
-18.31 0.0
end










#9
vectors
-2.504286199	0	10.44376706
1.252143099	-2.168775466	10.44376706
1.252143099	2.168775466	10.44376706
0 0 0 0 0 0
fractional
Sb core	0.396796585	0.396796585	0.396796585	0	0 0 0
Sb core	0.609235437	0.609235437	0.609235437  0	0 0 0
Te1 core	0	0	0				  0	0 0 0
Te2 core	0.784571335	0.784571335	0.784571335    0	0 0 0
Te2 core	0.215428654	0.215428654	0.215428654    0	0 0 0

observables
energy ev
-18.19 0.0
end

#10
vectors
-2.504286199	0	10.44376706
1.252143099	-2.168775466	10.44376706
1.252143099	2.168775466	10.44376706
0 0 0 0 0 0
fractional
Sb core	0.396796585	0.396796585	0.396796585	0	0 0 0
Sb core	0.615267471	0.615267471	0.615267471  0	0 0 0
Te1 core	0	0	0				  0	0 0 0
Te2 core	0.784571335	0.784571335	0.784571335    0	0 0 0
Te2 core	0.215428654	0.215428654	0.215428654    0	0 0 0

observables
energy ev
-17.82 0.0
end

#11
vectors
-2.504286199	0	10.44376706
1.252143099	-2.168775466	10.44376706
1.252143099	2.168775466	10.44376706
0 0 0 0 0 0
fractional
Sb core	0.396796585	0.396796585	0.396796585	0	0 0 0
Sb core	0.621299505	0.621299505	0.621299505  0	0 0 0
Te1 core	0	0	0				  0	0 0 0
Te2 core	0.784571335	0.784571335	0.784571335    0	0 0 0
Te2 core	0.215428654	0.215428654	0.215428654    0	0 0 0

observables
energy ev
-17.25 0.0
end

#12
vectors
-2.504286199	0	10.44376706
1.252143099	-2.168775466	10.44376706
1.252143099	2.168775466	10.44376706
0 0 0 0 0 0
fractional
Sb core	0.396796585	0.396796585	0.396796585	0	0 0 0
Sb core	0.62733154	0.62733154	0.62733154  0	0 0 0
Te1 core	0	0	0				  0	0 0 0
Te2 core	0.784571335	0.784571335	0.784571335    0	0 0 0
Te2 core	0.215428654	0.215428654	0.215428654    0	0 0 0

observables
energy ev
-16.54 0.0
end

#13
vectors
-2.504286199	0	10.44376706
1.252143099	-2.168775466	10.44376706
1.252143099	2.168775466	10.44376706
0 0 0 0 0 0
fractional
Sb core	0.396796585	0.396796585	0.396796585	0	0 0 0
Sb core	0.633363574	0.633363574	0.633363574  0	0 0 0
Te1 core	0	0	0				  0	0 0 0
Te2 core	0.784571335	0.784571335	0.784571335    0	0 0 0
Te2 core	0.215428654	0.215428654	0.215428654    0	0 0 0

observables
energy ev
-15.74 0.0
end

#14
vectors
-2.504286199	0	10.44376706
1.252143099	-2.168775466	10.44376706
1.252143099	2.168775466	10.44376706
0 0 0 0 0 0
fractional
Sb core	0.396796585	0.396796585	0.396796585	0	0 0 0
Sb core	0.639395608	0.639395608	0.639395608  0	0 0 0
Te1 core	0	0	0				  0	0 0 0
Te2 core	0.784571335	0.784571335	0.784571335    0	0 0 0
Te2 core	0.215428654	0.215428654	0.215428654    0	0 0 0

observables
energy ev
-14.90 0.0
end

#15
vectors
-2.504286199	0	10.44376706
1.252143099	-2.168775466	10.44376706
1.252143099	2.168775466	10.44376706
0 0 0 0 0 0
fractional
Sb core	0.396796585	0.396796585	0.396796585	0	0 0 0
Sb core	0.645427642	0.645427642	0.645427642  0	0 0 0
Te1 core	0	0	0				  0	0 0 0
Te2 core	0.784571335	0.784571335	0.784571335    0	0 0 0
Te2 core	0.215428654	0.215428654	0.215428654    0	0 0 0

observables
energy ev
-14.07 0.0
end




#########################################################################################
#------------------------Te1 111 (Te1)---------------------------------------------------
#########################################################################################
#1
vectors
-2.504286199	0	10.44376706
1.252143099	-2.168775466	10.44376706
1.252143099	2.168775466	10.44376706
0 0 0 0 0 0
fractional
Sb core	0.396796585	0.396796585	0.396796585	0	0 0 0
Sb core	0.603203403	0.603203403	0.603203403  0	0 0 0
Te1 core	-0.07	-0.07	-0.07				  0	0 0 0
Te2 core	0.784571335	0.784571335	0.784571335    0	0 0 0
Te2 core	0.215428654	0.215428654	0.215428654    0	0 0 0

observables
energy ev
-11.87 0.1
end

#2
vectors
-2.504286199	0	10.44376706
1.252143099	-2.168775466	10.44376706
1.252143099	2.168775466	10.44376706
0 0 0 0 0 0
fractional
Sb core	0.396796585	0.396796585	0.396796585	0	0 0 0
Sb core	0.603203403	0.603203403	0.603203403  0	0 0 0
Te1 core	-0.06	-0.06	-0.06				  0	0 0 0
Te2 core	0.784571335	0.784571335	0.784571335    0	0 0 0
Te2 core	0.215428654	0.215428654	0.215428654    0	0 0 0

observables
energy ev
-12.40 0.1
end

#3
vectors
-2.504286199	0	10.44376706
1.252143099	-2.168775466	10.44376706
1.252143099	2.168775466	10.44376706
0 0 0 0 0 0
fractional
Sb core	0.396796585	0.396796585	0.396796585	0	0 0 0
Sb core	0.603203403	0.603203403	0.603203403  0	0 0 0
Te1 core	-0.05	-0.05	-0.05				  0	0 0 0
Te2 core	0.784571335	0.784571335	0.784571335    0	0 0 0
Te2 core	0.215428654	0.215428654	0.215428654    0	0 0 0

observables
energy ev
-13.51 0.1
end

#4
vectors
-2.504286199	0	10.44376706
1.252143099	-2.168775466	10.44376706
1.252143099	2.168775466	10.44376706
0 0 0 0 0 0
fractional
Sb core	0.396796585	0.396796585	0.396796585	0	0 0 0
Sb core	0.603203403	0.603203403	0.603203403  0	0 0 0
Te1 core	-0.04	-0.04	-0.04				  0	0 0 0
Te2 core	0.784571335	0.784571335	0.784571335    0	0 0 0
Te2 core	0.215428654	0.215428654	0.215428654    0	0 0 0

observables
energy ev
-14.93 0.1
end

#5
vectors
-2.504286199	0	10.44376706
1.252143099	-2.168775466	10.44376706
1.252143099	2.168775466	10.44376706
0 0 0 0 0 0
fractional
Sb core	0.396796585	0.396796585	0.396796585	0	0 0 0
Sb core	0.603203403	0.603203403	0.603203403  0	0 0 0
Te1 core	-0.03	-0.03	-0.03				  0	0 0 0
Te2 core	0.784571335	0.784571335	0.784571335    0	0 0 0
Te2 core	0.215428654	0.215428654	0.215428654    0	0 0 0

observables
energy ev
-16.31 0.1
end

#6
vectors
-2.504286199	0	10.44376706
1.252143099	-2.168775466	10.44376706
1.252143099	2.168775466	10.44376706
0 0 0 0 0 0
fractional
Sb core	0.396796585	0.396796585	0.396796585	0	0 0 0
Sb core	0.603203403	0.603203403	0.603203403  0	0 0 0
Te1 core	-0.02	-0.02	-0.02				  0	0 0 0
Te2 core	0.784571335	0.784571335	0.784571335    0	0 0 0
Te2 core	0.215428654	0.215428654	0.215428654    0	0 0 0

observables
energy ev
-17.42 1.0
end

#7
vectors
-2.504286199	0	10.44376706
1.252143099	-2.168775466	10.44376706
1.252143099	2.168775466	10.44376706
0 0 0 0 0 0
fractional
Sb core	0.396796585	0.396796585	0.396796585	0	0 0 0
Sb core	0.603203403	0.603203403	0.603203403  0	0 0 0
Te1 core	-0.01	-0.01	-0.01				  0	0 0 0
Te2 core	0.784571335	0.784571335	0.784571335    0	0 0 0
Te2 core	0.215428654	0.215428654	0.215428654    0	0 0 0

observables
energy ev
-18.10 1.0
end









#Relaxed
vectors
-2.504286199	0	10.44376706
1.252143099	-2.168775466	10.44376706
1.252143099	2.168775466	10.44376706
0 0 0 0 0 0
fractional
Sb core	0.396796585	0.396796585	0.396796585	0	0 0 0
Sb core	0.603203403	0.603203403	0.603203403  0	0 0 0
Te1 core	0	0	0				  0	0 0 0
Te2 core	0.784571335	0.784571335	0.784571335    0	0 0 0
Te2 core	0.215428654	0.215428654	0.215428654    0	0 0 0

observables
energy ev
-18.31 1.0
end










#9
vectors
-2.504286199	0	10.44376706
1.252143099	-2.168775466	10.44376706
1.252143099	2.168775466	10.44376706
0 0 0 0 0 0
fractional
Sb core	0.396796585	0.396796585	0.396796585	0	0 0 0
Sb core	0.603203403	0.603203403	0.603203403  0	0 0 0
Te1 core	0.01	0.01	0.01				  0	0 0 0
Te2 core	0.784571335	0.784571335	0.784571335    0	0 0 0
Te2 core	0.215428654	0.215428654	0.215428654    0	0 0 0

observables
energy ev
-18.10 1.0
end

#10
vectors
-2.504286199	0	10.44376706
1.252143099	-2.168775466	10.44376706
1.252143099	2.168775466	10.44376706
0 0 0 0 0 0
fractional
Sb core	0.396796585	0.396796585	0.396796585	0	0 0 0
Sb core	0.603203403	0.603203403	0.603203403  0	0 0 0
Te1 core	0.02	0.02	0.02				  0	0 0 0
Te2 core	0.784571335	0.784571335	0.784571335    0	0 0 0
Te2 core	0.215428654	0.215428654	0.215428654    0	0 0 0

observables
energy ev
-17.42 1.0
end

#11
vectors
-2.504286199	0	10.44376706
1.252143099	-2.168775466	10.44376706
1.252143099	2.168775466	10.44376706
0 0 0 0 0 0
fractional
Sb core	0.396796585	0.396796585	0.396796585	0	0 0 0
Sb core	0.603203403	0.603203403	0.603203403  0	0 0 0
Te1 core	0.03	0.03	0.03				  0	0 0 0
Te2 core	0.784571335	0.784571335	0.784571335    0	0 0 0
Te2 core	0.215428654	0.215428654	0.215428654    0	0 0 0

observables
energy ev
-16.31 0.1
end

#12
vectors
-2.504286199	0	10.44376706
1.252143099	-2.168775466	10.44376706
1.252143099	2.168775466	10.44376706
0 0 0 0 0 0
fractional
Sb core	0.396796585	0.396796585	0.396796585	0	0 0 0
Sb core	0.603203403	0.603203403	0.603203403  0	0 0 0
Te1 core	0.04	0.04	0.04				  0	0 0 0
Te2 core	0.784571335	0.784571335	0.784571335    0	0 0 0
Te2 core	0.215428654	0.215428654	0.215428654    0	0 0 0

observables
energy ev
-14.93 0.1
end

#13
vectors
-2.504286199	0	10.44376706
1.252143099	-2.168775466	10.44376706
1.252143099	2.168775466	10.44376706
0 0 0 0 0 0
fractional
Sb core	0.396796585	0.396796585	0.396796585	0	0 0 0
Sb core	0.603203403	0.603203403	0.603203403  0	0 0 0
Te1 core	0.05	0.05	0.05				  0	0 0 0
Te2 core	0.784571335	0.784571335	0.784571335    0	0 0 0
Te2 core	0.215428654	0.215428654	0.215428654    0	0 0 0

observables
energy ev
-13.51 0.1
end

#14
vectors
-2.504286199	0	10.44376706
1.252143099	-2.168775466	10.44376706
1.252143099	2.168775466	10.44376706
0 0 0 0 0 0
fractional
Sb core	0.396796585	0.396796585	0.396796585	0	0 0 0
Sb core	0.603203403	0.603203403	0.603203403  0	0 0 0
Te1 core	0.06	0.06	0.06				  0	0 0 0
Te2 core	0.784571335	0.784571335	0.784571335    0	0 0 0
Te2 core	0.215428654	0.215428654	0.215428654    0	0 0 0

observables
energy ev
-12.40 0.1
end

#15
vectors
-2.504286199	0	10.44376706
1.252143099	-2.168775466	10.44376706
1.252143099	2.168775466	10.44376706
0 0 0 0 0 0
fractional
Sb core	0.396796585	0.396796585	0.396796585	0	0 0 0
Sb core	0.603203403	0.603203403	0.603203403  0	0 0 0
Te1 core	0.07	0.07	0.07				  0	0 0 0
Te2 core	0.784571335	0.784571335	0.784571335    0	0 0 0
Te2 core	0.215428654	0.215428654	0.215428654    0	0 0 0

observables
energy ev
-11.87 0.1
end


#########################################################################################
#------------------------Te2 111 (Te2)---------------------------------------------------
#########################################################################################
#1
vectors
-2.504286199	0	10.44376706
1.252143099	-2.168775466	10.44376706
1.252143099	2.168775466	10.44376706
0 0 0 0 0 0
fractional
Sb core	0.396796585	0.396796585	0.396796585	0	0 0 0
Sb core	0.603203403	0.603203403	0.603203403  0	0 0 0
Te1 core	0	0	0				  0	0 0 0
Te2 core	0.729651341	0.729651341	0.729651341    0	0 0 0
Te2 core	0.215428654	0.215428654	0.215428654    0	0 0 0

observables
energy ev
-13.401616 0.0
end

#2
vectors
-2.504286199	0	10.44376706
1.252143099	-2.168775466	10.44376706
1.252143099	2.168775466	10.44376706
0 0 0 0 0 0
fractional
Sb core	0.396796585	0.396796585	0.396796585	0	0 0 0
Sb core	0.603203403	0.603203403	0.603203403  0	0 0 0
Te1 core	0	0	0				  0	0 0 0
Te2 core	0.737497055	0.737497055	0.737497055    0	0 0 0
Te2 core	0.215428654	0.215428654	0.215428654    0	0 0 0

observables
energy ev
-14.060568 0.0
end

#3
vectors
-2.504286199	0	10.44376706
1.252143099	-2.168775466	10.44376706
1.252143099	2.168775466	10.44376706
0 0 0 0 0 0
fractional
Sb core	0.396796585	0.396796585	0.396796585	0	0 0 0
Sb core	0.603203403	0.603203403	0.603203403  0	0 0 0
Te1 core	0	0	0				  0	0 0 0
Te2 core	0.745342768	0.745342768	0.745342768    0	0 0 0
Te2 core	0.215428654	0.215428654	0.215428654    0	0 0 0

observables
energy ev
-14.959104 0.0
end

#4
vectors
-2.504286199	0	10.44376706
1.252143099	-2.168775466	10.44376706
1.252143099	2.168775466	10.44376706
0 0 0 0 0 0
fractional
Sb core	0.396796585	0.396796585	0.396796585	0	0 0 0
Sb core	0.603203403	0.603203403	0.603203403  0	0 0 0
Te1 core	0	0	0				  0	0 0 0
Te2 core	0.753188481	0.753188481	0.753188481    0	0 0 0
Te2 core	0.215428654	0.215428654	0.215428654    0	0 0 0

observables
energy ev
-15.953355 0.0
end

#5
vectors
-2.504286199	0	10.44376706
1.252143099	-2.168775466	10.44376706
1.252143099	2.168775466	10.44376706
0 0 0 0 0 0
fractional
Sb core	0.396796585	0.396796585	0.396796585	0	0 0 0
Sb core	0.603203403	0.603203403	0.603203403  0	0 0 0
Te1 core	0	0	0				  0	0 0 0
Te2 core	0.761034195	0.761034195	0.761034195    0	0 0 0
Te2 core	0.215428654	0.215428654	0.215428654    0	0 0 0

observables
energy ev
-16.897777 0.0
end

#6
vectors
-2.504286199	0	10.44376706
1.252143099	-2.168775466	10.44376706
1.252143099	2.168775466	10.44376706
0 0 0 0 0 0
fractional
Sb core	0.396796585	0.396796585	0.396796585	0	0 0 0
Sb core	0.603203403	0.603203403	0.603203403  0	0 0 0
Te1 core	0	0	0				  0	0 0 0
Te2 core	0.768879908	0.768879908	0.768879908    0	0 0 0
Te2 core	0.215428654	0.215428654	0.215428654    0	0 0 0

observables
energy ev
-17.660749 0.0
end

#7
vectors
-2.504286199	0	10.44376706
1.252143099	-2.168775466	10.44376706
1.252143099	2.168775466	10.44376706
0 0 0 0 0 0
fractional
Sb core	0.396796585	0.396796585	0.396796585	0	0 0 0
Sb core	0.603203403	0.603203403	0.603203403  0	0 0 0
Te1 core	0	0	0				  0	0 0 0
Te2 core	0.776725621	0.776725621	0.776725621    0	0 0 0
Te2 core	0.215428654	0.215428654	0.215428654    0	0 0 0

observables
energy ev
-18.149304 0.0
end









#Relaxed
vectors
-2.504286199	0	10.44376706
1.252143099	-2.168775466	10.44376706
1.252143099	2.168775466	10.44376706
0 0 0 0 0 0
fractional
Sb core	0.396796585	0.396796585	0.396796585	0	0 0 0
Sb core	0.603203403	0.603203403	0.603203403  0	0 0 0
Te1 core	0	0	0				  0	0 0 0
Te2 core	0.784571335	0.784571335	0.784571335    0	0 0 0
Te2 core	0.215428654	0.215428654	0.215428654    0	0 0 0

observables
energy ev
-18.31 0.0
end










#9
vectors
-2.504286199	0	10.44376706
1.252143099	-2.168775466	10.44376706
1.252143099	2.168775466	10.44376706
0 0 0 0 0 0
fractional
Sb core	0.396796585	0.396796585	0.396796585	0	0 0 0
Sb core	0.603203403	0.603203403	0.603203403  0	0 0 0
Te1 core	0	0	0				  0	0 0 0
Te2 core	0.792417048	0.792417048	0.792417048    0	0 0 0
Te2 core	0.215428654	0.215428654	0.215428654    0	0 0 0

observables
energy ev
-18.166583 0.0
end

#10
vectors
-2.504286199	0	10.44376706
1.252143099	-2.168775466	10.44376706
1.252143099	2.168775466	10.44376706
0 0 0 0 0 0
fractional
Sb core	0.396796585	0.396796585	0.396796585	0	0 0 0
Sb core	0.603203403	0.603203403	0.603203403  0	0 0 0
Te1 core	0	0	0				  0	0 0 0
Te2 core	0.800262761	0.800262761	0.800262761    0	0 0 0
Te2 core	0.215428654	0.215428654	0.215428654    0	0 0 0

observables
energy ev
-17.809687 0.0
end

#11
vectors
-2.504286199	0	10.44376706
1.252143099	-2.168775466	10.44376706
1.252143099	2.168775466	10.44376706
0 0 0 0 0 0
fractional
Sb core	0.396796585	0.396796585	0.396796585	0	0 0 0
Sb core	0.603203403	0.603203403	0.603203403  0	0 0 0
Te1 core	0	0	0				  0	0 0 0
Te2 core	0.808108475	0.808108475	0.808108475    0	0 0 0
Te2 core	0.215428654	0.215428654	0.215428654    0	0 0 0

observables
energy ev
-17.401086 0.0
end

#12
vectors
-2.504286199	0	10.44376706
1.252143099	-2.168775466	10.44376706
1.252143099	2.168775466	10.44376706
0 0 0 0 0 0
fractional
Sb core	0.396796585	0.396796585	0.396796585	0	0 0 0
Sb core	0.603203403	0.603203403	0.603203403  0	0 0 0
Te1 core	0	0	0				  0	0 0 0
Te2 core	0.815954188	0.815954188	0.815954188    0	0 0 0
Te2 core	0.215428654	0.215428654	0.215428654    0	0 0 0

observables
energy ev
-17.087688 0.0
end

#13
vectors
-2.504286199	0	10.44376706
1.252143099	-2.168775466	10.44376706
1.252143099	2.168775466	10.44376706
0 0 0 0 0 0
fractional
Sb core	0.396796585	0.396796585	0.396796585	0	0 0 0
Sb core	0.603203403	0.603203403	0.603203403  0	0 0 0
Te1 core	0	0	0				  0	0 0 0
Te2 core	0.823799902	0.823799902	0.823799902    0	0 0 0
Te2 core	0.215428654	0.215428654	0.215428654    0	0 0 0

observables
energy ev
-16.859469 0.0
end

#14
vectors
-2.504286199	0	10.44376706
1.252143099	-2.168775466	10.44376706
1.252143099	2.168775466	10.44376706
0 0 0 0 0 0
fractional
Sb core	0.396796585	0.396796585	0.396796585	0	0 0 0
Sb core	0.603203403	0.603203403	0.603203403  0	0 0 0
Te1 core	0	0	0				  0	0 0 0
Te2 core	0.831645615	0.831645615	0.831645615    0	0 0 0
Te2 core	0.215428654	0.215428654	0.215428654    0	0 0 0

observables
energy ev
-16.573003 0.0
end

#15
vectors
-2.504286199	0	10.44376706
1.252143099	-2.168775466	10.44376706
1.252143099	2.168775466	10.44376706
0 0 0 0 0 0
fractional
Sb core	0.396796585	0.396796585	0.396796585	0	0 0 0
Sb core	0.603203403	0.603203403	0.603203403  0	0 0 0
Te1 core	0	0	0				  0	0 0 0
Te2 core	0.839491328	0.839491328	0.839491328    0	0 0 0
Te2 core	0.215428654	0.215428654	0.215428654    0	0 0 0

observables
energy ev
-16.101545 0.0
end


#########################################################################################
#------------------------Te2 111 (Te3)---------------------------------------------------
#########################################################################################
#1
vectors
-2.504286199	0	10.44376706
1.252143099	-2.168775466	10.44376706
1.252143099	2.168775466	10.44376706
0 0 0 0 0 0
fractional
Sb core	0.396796585	0.396796585	0.396796585	0	0 0 0
Sb core	0.603203403	0.603203403	0.603203403  0	0 0 0
Te1 core	0	0	0				  0	0 0 0
Te2 core	0.784571335	0.784571335	0.784571335    0	0 0 0
Te2 core	0.200348648	0.200348648	0.200348648    0	0 0 0

observables
energy ev
-16.07 0.5
end

#2
vectors
-2.504286199	0	10.44376706
1.252143099	-2.168775466	10.44376706
1.252143099	2.168775466	10.44376706
0 0 0 0 0 0
fractional
Sb core	0.396796585	0.396796585	0.396796585	0	0 0 0
Sb core	0.603203403	0.603203403	0.603203403  0	0 0 0
Te1 core	0	0	0				  0	0 0 0
Te2 core	0.784571335	0.784571335	0.784571335    0	0 0 0
Te2 core	0.202502934	0.202502934	0.202502934    0	0 0 0

observables
energy ev
-16.58 0.5
end

#3
vectors
-2.504286199	0	10.44376706
1.252143099	-2.168775466	10.44376706
1.252143099	2.168775466	10.44376706
0 0 0 0 0 0
fractional
Sb core	0.396796585	0.396796585	0.396796585	0	0 0 0
Sb core	0.603203403	0.603203403	0.603203403  0	0 0 0
Te1 core	0	0	0				  0	0 0 0
Te2 core	0.784571335	0.784571335	0.784571335    0	0 0 0
Te2 core	0.204657221	0.204657221	0.204657221    0	0 0 0

observables
energy ev
-17.06 0.5
end

#4
vectors
-2.504286199	0	10.44376706
1.252143099	-2.168775466	10.44376706
1.252143099	2.168775466	10.44376706
0 0 0 0 0 0
fractional
Sb core	0.396796585	0.396796585	0.396796585	0	0 0 0
Sb core	0.603203403	0.603203403	0.603203403  0	0 0 0
Te1 core	0	0	0				  0	0 0 0
Te2 core	0.784571335	0.784571335	0.784571335    0	0 0 0
Te2 core	0.206811507	0.206811507	0.206811507    0	0 0 0

observables
energy ev
-17.48 0.5
end

#5
vectors
-2.504286199	0	10.44376706
1.252143099	-2.168775466	10.44376706
1.252143099	2.168775466	10.44376706
0 0 0 0 0 0
fractional
Sb core	0.396796585	0.396796585	0.396796585	0	0 0 0
Sb core	0.603203403	0.603203403	0.603203403  0	0 0 0
Te1 core	0	0	0				  0	0 0 0