fit relax

#eqiulibrium
cell
10.26828 10.26828 10.26828 24.4945 24.4945 24.4945 0 0 0 0 0 0
fractional
Te2 0.00000000000  0.00000000000  0.00000000000 -0.24 0 0 0
Te1 0.20883661968  0.20883661968  0.20883661968 -0.26 0 0 0
Bi  0.40038902982  0.40038902982  0.40038902982 0.38 0 0 0
Bi  0.59961097018  0.59961097018  0.59961097018 0.38 0 0 0
Te1 0.79116338032  0.79116338032  0.79116338032 -0.26 0 0 0

observables
energy ev
-0.6538487791844 100.0
end

shift
1.0

#small001
cell
10.26828 10.26828 10.26828 24.4945 24.4945 24.4945 0 0 0 0 0 0
fractional
Te2 0.00000000000  0.00000000000  0.00000000000 -0.24 0 0 0
Te1 0.20983661968  0.20883661968  0.20883661968 -0.26 0 0 0
Bi  0.40038902982  0.40038902982  0.40038902982 0.38 0 0 0
Bi  0.59961097018  0.59961097018  0.59961097018 0.38 0 0 0
Te1 0.79116338032  0.79116338032  0.79116338032 -0.26 0 0 0

observables
energy ev
-0.6537139666758 100.0
end

#small002
cell
10.26828 10.26828 10.26828 24.4945 24.4945 24.4945 0 0 0 0 0 0
fractional
Te2 0.00000000000  0.00000000000  0.00000000000 -0.24 0 0 0
Te1 0.21083661968  0.20883661968  0.20883661968 -0.26 0 0 0
Bi  0.40038902982  0.40038902982  0.40038902982 0.38 0 0 0
Bi  0.59961097018  0.59961097018  0.59961097018 0.38 0 0 0
Te1 0.79116338032  0.79116338032  0.79116338032 -0.26 0 0 0

observables
energy ev
-0.6530001230587 100.0
end

#small003
cell
10.26828 10.26828 10.26828 24.4945 24.4945 24.4945 0 0 0 0 0 0
fractional
Te2 0.00000000000  0.00000000000  0.00000000000 -0.24 0 0 0
Te1 0.21183661968  0.20883661968  0.20883661968 -0.26 0 0 0
Bi  0.40038902982  0.40038902982  0.40038902982 0.38 0 0 0
Bi  0.59961097018  0.59961097018  0.59961097018 0.38 0 0 0
Te1 0.79116338032  0.79116338032  0.79116338032 -0.26 0 0 0

observables
energy ev
-0.6517012291055 100.0
end

#small004
cell
10.26828 10.26828 10.26828 24.4945 24.4945 24.4945 0 0 0 0 0 0
fractional
Te2 0.00000000000  0.00000000000  0.00000000000 -0.24 0 0 0
Te1 0.21283661968  0.20883661968  0.20883661968 -0.26 0 0 0
Bi  0.40038902982  0.40038902982  0.40038902982 0.38 0 0 0
Bi  0.59961097018  0.59961097018  0.59961097018 0.38 0 0 0
Te1 0.79116338032  0.79116338032  0.79116338032 -0.26 0 0 0

observables
energy ev
-0.6498122163590 100.0
end

#small005
cell
10.26828 10.26828 10.26828 24.4945 24.4945 24.4945 0 0 0 0 0 0
fractional
Te2 0.00000000000  0.00000000000  0.00000000000 -0.24 0 0 0
Te1 0.21383661968  0.20883661968  0.20883661968 -0.26 0 0 0
Bi  0.40038902982  0.40038902982  0.40038902982 0.38 0 0 0
Bi  0.59961097018  0.59961097018  0.59961097018 0.38 0 0 0
Te1 0.79116338032  0.79116338032  0.79116338032 -0.26 0 0 0

observables
energy ev
-0.6473282419166 100.0
end

#small006
cell
10.26828 10.26828 10.26828 24.4945 24.4945 24.4945 0 0 0 0 0 0
fractional
Te2 0.00000000000  0.00000000000  0.00000000000 -0.24 0 0 0
Te1 0.21483661968  0.20883661968  0.20883661968 -0.26 0 0 0
Bi  0.40038902982  0.40038902982  0.40038902982 0.38 0 0 0
Bi  0.59961097018  0.59961097018  0.59961097018 0.38 0 0 0
Te1 0.79116338032  0.79116338032  0.79116338032 -0.26 0 0 0

observables
energy ev
-0.6442446915615 100.0
end

#small007
cell
10.26828 10.26828 10.26828 24.4945 24.4945 24.4945 0 0 0 0 0 0
fractional
Te2 0.00000000000  0.00000000000  0.00000000000 -0.24 0 0 0
Te1 0.21583661968  0.20883661968  0.20883661968 -0.26 0 0 0
Bi  0.40038902982  0.40038902982  0.40038902982 0.38 0 0 0
Bi  0.59961097018  0.59961097018  0.59961097018 0.38 0 0 0
Te1 0.79116338032  0.79116338032  0.79116338032 -0.26 0 0 0

observables
energy ev
-0.6405571825417 100.0
end

#small008
cell
10.26828 10.26828 10.26828 24.4945 24.4945 24.4945 0 0 0 0 0 0
fractional
Te2 0.00000000000  0.00000000000  0.00000000000 -0.24 0 0 0
Te1 0.21683661968  0.20883661968  0.20883661968 -0.26 0 0 0
Bi  0.40038902982  0.40038902982  0.40038902982 0.38 0 0 0
Bi  0.59961097018  0.59961097018  0.59961097018 0.38 0 0 0
Te1 0.79116338032  0.79116338032  0.79116338032 -0.26 0 0 0

observables
energy ev
-0.6362615657958 100.0
end

#small009
cell
10.26828 10.26828 10.26828 24.4945 24.4945 24.4945 0 0 0 0 0 0
fractional
Te2 0.00000000000  0.00000000000  0.00000000000 -0.24 0 0 0
Te1 0.21783661968  0.20883661968  0.20883661968 -0.26 0 0 0
Bi  0.40038902982  0.40038902982  0.40038902982 0.38 0 0 0
Bi  0.59961097018  0.59961097018  0.59961097018 0.38 0 0 0
Te1 0.79116338032  0.79116338032  0.79116338032 -0.26 0 0 0

observables
energy ev
-0.6313539274031 100.0
end

#small011
cell
10.26828 10.26828 10.26828 24.4945 24.4945 24.4945 0 0 0 0 0 0
fractional
Te2 0.00000000000  0.00000000000  0.00000000000 -0.24 0 0 0
Te1 0.20883661968  0.20883661968  0.20883661968 -0.26 0 0 0
Bi  0.40138902982  0.40038902982  0.40038902982 0.38 0 0 0
Bi  0.59961097018  0.59961097018  0.59961097018 0.38 0 0 0
Te1 0.79116338032  0.79116338032  0.79116338032 -0.26 0 0 0

observables
energy ev
-0.6533432581591 100.0
end


#small012
cell
10.26828 10.26828 10.26828 24.4945 24.4945 24.4945 0 0 0 0 0 0
fractional
Te2 0.00000000000  0.00000000000  0.00000000000 -0.24 0 0 0
Te1 0.20883661968  0.20883661968  0.20883661968 -0.26 0 0 0
Bi  0.40238902982  0.40038902982  0.40038902982 0.38 0 0 0
Bi  0.59961097018  0.59961097018  0.59961097018 0.38 0 0 0
Te1 0.79116338032  0.79116338032  0.79116338032 -0.26 0 0 0

observables
energy ev
-0.6521083795384 100.0
end

#small013
cell
10.26828 10.26828 10.26828 24.4945 24.4945 24.4945 0 0 0 0 0 0
fractional
Te2 0.00000000000  0.00000000000  0.00000000000 -0.24 0 0 0
Te1 0.20883661968  0.20883661968  0.20883661968 -0.26 0 0 0
Bi  0.40338902982  0.40038902982  0.40038902982 0.38 0 0 0
Bi  0.59961097018  0.59961097018  0.59961097018 0.38 0 0 0
Te1 0.79116338032  0.79116338032  0.79116338032 -0.26 0 0 0

observables
energy ev
-0.6501416156234 100.0
end

#small014
cell
10.26828 10.26828 10.26828 24.4945 24.4945 24.4945 0 0 0 0 0 0
fractional
Te2 0.00000000000  0.00000000000  0.00000000000 -0.24 0 0 0
Te1 0.20883661968  0.20883661968  0.20883661968 -0.26 0 0 0
Bi  0.40438902982  0.40038902982  0.40038902982 0.38 0 0 0
Bi  0.59961097018  0.59961097018  0.59961097018 0.38 0 0 0
Te1 0.79116338032  0.79116338032  0.79116338032 -0.26 0 0 0

observables
energy ev
-0.6474412836324 100.0
end

#small015
cell
10.26828 10.26828 10.26828 24.4945 24.4945 24.4945 0 0 0 0 0 0
fractional
Te2 0.00000000000  0.00000000000  0.00000000000 -0.24 0 0 0
Te1 0.20883661968  0.20883661968  0.20883661968 -0.26 0 0 0
Bi  0.40538902982  0.40038902982  0.40038902982 0.38 0 0 0
Bi  0.59961097018  0.59961097018  0.59961097018 0.38 0 0 0
Te1 0.79116338032  0.79116338032  0.79116338032 -0.26 0 0 0

observables
energy ev
-0.6440058190453 100.0
end

#small016
cell
10.26828 10.26828 10.26828 24.4945 24.4945 24.4945 0 0 0 0 0 0
fractional
Te2 0.00000000000  0.00000000000  0.00000000000 -0.24 0 0 0
Te1 0.20883661968  0.20883661968  0.20883661968 -0.26 0 0 0
Bi  0.40638902982  0.40038902982  0.40038902982 0.38 0 0 0
Bi  0.59961097018  0.59961097018  0.59961097018 0.38 0 0 0
Te1 0.79116338032  0.79116338032  0.79116338032 -0.26 0 0 0

observables
energy ev
-0.6398337781235 100.0
end

#small017
cell
10.26828 10.26828 10.26828 24.4945 24.4945 24.4945 0 0 0 0 0 0
fractional
Te2 0.00000000000  0.00000000000  0.00000000000 -0.24 0 0 0
Te1 0.20883661968  0.20883661968  0.20883661968 -0.26 0 0 0
Bi  0.40738902982  0.40038902982  0.40038902982 0.38 0 0 0
Bi  0.59961097018  0.59961097018  0.59961097018 0.38 0 0 0
Te1 0.79116338032  0.79116338032  0.79116338032 -0.26 0 0 0

observables
energy ev
-0.6349238399343 100.0
end

#small018
cell
10.26828 10.26828 10.26828 24.4945 24.4945 24.4945 0 0 0 0 0 0
fractional
Te2 0.00000000000  0.00000000000  0.00000000000 -0.24 0 0 0
Te1 0.20883661968  0.20883661968  0.20883661968 -0.26 0 0 0
Bi  0.40838902982  0.40038902982  0.40038902982 0.38 0 0 0
Bi  0.59961097018  0.59961097018  0.59961097018 0.38 0 0 0
Te1 0.79116338032  0.79116338032  0.79116338032 -0.26 0 0 0

observables
energy ev
-0.6292748088706 100.0
end

#small019
cell
10.26828 10.26828 10.26828 24.4945 24.4945 24.4945 0 0 0 0 0 0
fractional
Te2 0.00000000000  0.00000000000  0.00000000000 -0.24 0 0 0
Te1 0.20883661968  0.20883661968  0.20883661968 -0.26 0 0 0
Bi  0.40938902982  0.40038902982  0.40038902982 0.38 0 0 0
Bi  0.59961097018  0.59961097018  0.59961097018 0.38 0 0 0
Te1 0.79116338032  0.79116338032  0.79116338032 -0.26 0 0 0

observables
energy ev
-0.6228856168830 100.0
end

#medium001
cell
10.26828 10.26828 10.26828 24.4945 24.4945 24.4945 0 0 0 0 0 0
fractional
Te2 0.00000000000  0.00000000000  0.00000000000 -0.24 0 0 0
Te1 0.21883661968  0.20883661968  0.20883661968 -0.26 0 0 0
Bi  0.40038902982  0.40038902982  0.40038902982 0.38 0 0 0
Bi  0.59961097018  0.59961097018  0.59961097018 0.38 0 0 0
Te1 0.79116338032  0.79116338032  0.79116338032 -0.26 0 0 0

observables
energy ev
-0.6258305896887 100.0
end



#medium011
cell
10.26828 10.26828 10.26828 24.4945 24.4945 24.4945 0 0 0 0 0 0
fractional
Te2 0.00000000000  0.00000000000  0.00000000000 -0.24 0 0 0
Te1 0.20883661968  0.20883661968  0.20883661968 -0.26 0 0 0
Bi  0.41038902982  0.40038902982  0.40038902982 0.38 0 0 0
Bi  0.59961097018  0.59961097018  0.59961097018 0.38 0 0 0
Te1 0.79116338032  0.79116338032  0.79116338032 -0.26 0 0 0

observables
energy ev
-0.6157553256741 100.0
end

#two001
cell
10.26828 10.26828 10.26828 24.4945 24.4945 24.4945 0 0 0 0 0 0
fractional
Te2 0.00000000000  0.00000000000  0.00000000000 -0.24 0 0 0
Te1 0.20983661968  0.20883661968  0.20883661968 -0.26 0 0 0
Bi  0.40138902982  0.40038902982  0.40038902982 0.38 0 0 0
Bi  0.59961097018  0.59961097018  0.59961097018 0.38 0 0 0
Te1 0.79116338032  0.79116338032  0.79116338032 -0.26 0 0 0

observables
energy ev
-0.6531957271470 100.0
end

#two002
cell
10.26828 10.26828 10.26828 24.4945 24.4945 24.4945 0 0 0 0 0 0
fractional
Te2 0.00000000000  0.00000000000  0.00000000000 -0.24 0 0 0
Te1 0.21083661968  0.20883661968  0.20883661968 -0.26 0 0 0
Bi  0.40238902982  0.40038902982  0.40038902982 0.38 0 0 0
Bi  0.59961097018  0.59961097018  0.59961097018 0.38 0 0 0
Te1 0.79116338032  0.79116338032  0.79116338032 -0.26 0 0 0

observables
energy ev
-0.6512037054441 100.0
end

#two003
cell
10.26828 10.26828 10.26828 24.4945 24.4945 24.4945 0 0 0 0 0 0
fractional
Te2 0.00000000000  0.00000000000  0.00000000000 -0.24 0 0 0
Te1 0.21183661968  0.20883661968  0.20883661968 -0.26 0 0 0
Bi  0.40338902982  0.40038902982  0.40038902982 0.38 0 0 0
Bi  0.59961097018  0.59961097018  0.59961097018 0.38 0 0 0
Te1 0.79116338032  0.79116338032  0.79116338032 -0.26 0 0 0

observables
energy ev
-0.6478606522804 100.0
end

#two004
cell
10.26828 10.26828 10.26828 24.4945 24.4945 24.4945 0 0 0 0 0 0
fractional
Te2 0.00000000000  0.00000000000  0.00000000000 -0.24 0 0 0
Te1 0.21283661968  0.20883661968  0.20883661968 -0.26 0 0 0
Bi  0.40438902982  0.40038902982  0.40038902982 0.38 0 0 0
Bi  0.59961097018  0.59961097018  0.59961097018 0.38 0 0 0
Te1 0.79116338032  0.79116338032  0.79116338032 -0.26 0 0 0

observables
energy ev
-0.6431558368301 100.0
end

#two005
cell
10.26828 10.26828 10.26828 24.4945 24.4945 24.4945 0 0 0 0 0 0
fractional
Te2 0.00000000000  0.00000000000  0.00000000000 -0.24 0 0 0
Te1 0.21383661968  0.20883661968  0.20883661968 -0.26 0 0 0
Bi  0.40538902982  0.40038902982  0.40038902982 0.38 0 0 0
Bi  0.59961097018  0.59961097018  0.59961097018 0.38 0 0 0
Te1 0.79116338032  0.79116338032  0.79116338032 -0.26 0 0 0

observables
energy ev
-0.6370791490257 100.0
end

#two006
cell
10.26828 10.26828 10.26828 24.4945 24.4945 24.4945 0 0 0 0 0 0
fractional
Te2 0.00000000000  0.00000000000  0.00000000000 -0.24 0 0 0
Te1 0.21483661968  0.20883661968  0.20883661968 -0.26 0 0 0
Bi  0.40638902982  0.40038902982  0.40038902982 0.38 0 0 0
Bi  0.59961097018  0.59961097018  0.59961097018 0.38 0 0 0
Te1 0.79116338032  0.79116338032  0.79116338032 -0.26 0 0 0

observables
energy ev
-0.6296211189526 100.0
end

#two007
cell
10.26828 10.26828 10.26828 24.4945 24.4945 24.4945 0 0 0 0 0 0
fractional
Te2 0.00000000000  0.00000000000  0.00000000000 -0.24 0 0 0
Te1 0.21583661968  0.20883661968  0.20883661968 -0.26 0 0 0
Bi  0.40738902982  0.40038902982  0.40038902982 0.38 0 0 0
Bi  0.59961097018  0.59961097018  0.59961097018 0.38 0 0 0
Te1 0.79116338032  0.79116338032  0.79116338032 -0.26 0 0 0

observables
energy ev
-0.6207729376257 100.0
end

#two011
cell
10.26828 10.26828 10.26828 24.4945 24.4945 24.4945 0 0 0 0 0 0
fractional
Te2 0.00000000000  0.00000000000  0.00000000000 -0.24 0 0 0
Te1 0.20783661968  0.20883661968  0.20883661968 -0.26 0 0 0
Bi  0.40138902982  0.40038902982  0.40038902982 0.38 0 0 0
Bi  0.59961097018  0.59961097018  0.59961097018 0.38 0 0 0
Te1 0.79116338032  0.79116338032  0.79116338032 -0.26 0 0 0

observables
energy ev
-0.6529163145880 100.0
end

#two012
cell
10.26828 10.26828 10.26828 24.4945 24.4945 24.4945 0 0 0 0 0 0
fractional
Te2 0.00000000000  0.00000000000  0.00000000000 -0.24 0 0 0
Te1 0.20683661968  0.20883661968  0.20883661968 -0.26 0 0 0
Bi  0.40238902982  0.40038902982  0.40038902982 0.38 0 0 0
Bi  0.59961097018  0.59961097018  0.59961097018 0.38 0 0 0
Te1 0.79116338032  0.79116338032  0.79116338032 -0.26 0 0 0

observables
energy ev
-0.6507145181596 100.0
end

#two013
cell
10.26828 10.26828 10.26828 24.4945 24.4945 24.4945 0 0 0 0 0 0
fractional
Te2 0.00000000000  0.00000000000  0.00000000000 -0.24 0 0 0
Te1 0.20583661968  0.20883661968  0.20883661968 -0.26 0 0 0
Bi  0.40338902982  0.40038902982  0.40038902982 0.38 0 0 0
Bi  0.59961097018  0.59961097018  0.59961097018 0.38 0 0 0
Te1 0.79116338032  0.79116338032  0.79116338032 -0.26 0 0 0

observables
energy ev
-0.6472498390655 100.0
end

#two14
cell
10.26828 10.26828 10.26828 24.4945 24.4945 24.4945 0 0 0 0 0 0
fractional
Te2 0.00000000000  0.00000000000  0.00000000000 -0.24 0 0 0
Te1 0.20483661968  0.20883661968  0.20883661968 -0.26 0 0 0
Bi  0.40438902982  0.40038902982  0.40038902982 0.38 0 0 0
Bi  0.59961097018  0.59961097018  0.59961097018 0.38 0 0 0
Te1 0.79116338032  0.79116338032  0.79116338032 -0.26 0 0 0

observables
energy ev
-0.6425296074057 100.0
end

#two15
cell
10.26828 10.26828 10.26828 24.4945 24.4945 24.4945 0 0 0 0 0 0
fractional
Te2 0.00000000000  0.00000000000  0.00000000000 -0.24 0 0 0
Te1 0.20383661968  0.20883661968  0.20883661968 -0.26 0 0 0
Bi  0.40538902982  0.40038902982  0.40038902982 0.38 0 0 0
Bi  0.59961097018  0.59961097018  0.59961097018 0.38 0 0 0
Te1 0.79116338032  0.79116338032  0.79116338032 -0.26 0 0 0

observables
energy ev
-0.6365612808156 100.0
end

#two16
cell
10.26828 10.26828 10.26828 24.4945 24.4945 24.4945 0 0 0 0 0 0
fractional
Te2 0.00000000000  0.00000000000  0.00000000000 -0.24 0 0 0
Te1 0.20283661968  0.20883661968  0.20883661968 -0.26 0 0 0
Bi  0.40638902982  0.40038902982  0.40038902982 0.38 0 0 0
Bi  0.59961097018  0.59961097018  0.59961097018 0.38 0 0 0
Te1 0.79116338032  0.79116338032  0.79116338032 -0.26 0 0 0

observables
energy ev
-0.6293524212547 100.0
end

#two17
cell
10.26828 10.26828 10.26828 24.4945 24.4945 24.4945 0 0 0 0 0 0
fractional
Te2 0.00000000000  0.00000000000  0.00000000000 -0.24 0 0 0
Te1 0.20183661968  0.20883661968  0.20883661968 -0.26 0 0 0
Bi  0.40738902982  0.40038902982  0.40038902982 0.38 0 0 0
Bi  0.59961097018  0.59961097018  0.59961097018 0.38 0 0 0
Te1 0.79116338032  0.79116338032  0.79116338032 -0.26 0 0 0

observables
energy ev
-0.6209106727447 100.0
end

#offtwo001
cell
10.26828 10.26828 10.26828 24.4945 24.4945 24.4945 0 0 0 0 0 0
fractional
Te2 0.00000000000  0.00000000000  0.00000000000 -0.24 0 0 0
Te1 0.20983661968  0.20883661968  0.20883661968 -0.26 0 0 0
Bi  0.40038902982  0.40138902982  0.40038902982 0.38 0 0 0
Bi  0.59961097018  0.59961097018  0.59961097018 0.38 0 0 0
Te1 0.79116338032  0.79116338032  0.79116338032 -0.26 0 0 0

observables
energy ev
-0.6531992052576 100.0
end

#offtwo002
cell
10.26828 10.26828 10.26828 24.4945 24.4945 24.4945 0 0 0 0 0 0
fractional
Te2 0.00000000000  0.00000000000  0.00000000000 -0.24 0 0 0
Te1 0.21083661968  0.20883661968  0.20883661968 -0.26 0 0 0
Bi  0.40038902982  0.40238902982  0.40038902982 0.38 0 0 0
Bi  0.59961097018  0.59961097018  0.59961097018 0.38 0 0 0
Te1 0.79116338032  0.79116338032  0.79116338032 -0.26 0 0 0

observables
energy ev
-0.6512245481880 100.0
end

#offtwo003
cell
10.26828 10.26828 10.26828 24.4945 24.4945 24.4945 0 0 0 0 0 0
fractional
Te2 0.00000000000  0.00000000000  0.00000000000 -0.24 0 0 0
Te1 0.21183661968  0.20883661968  0.20883661968 -0.26 0 0 0
Bi  0.40038902982  0.40338902982  0.40038902982 0.38 0 0 0
Bi  0.59961097018  0.59961097018  0.59961097018 0.38 0 0 0
Te1 0.79116338032  0.79116338032  0.79116338032 -0.26 0 0 0

observables
energy ev
-0.6479109363838 100.0
end

#offtwo004
cell
10.26828 10.26828 10.26828 24.4945 24.4945 24.4945 0 0 0 0 0 0
fractional
Te2 0.00000000000  0.00000000000  0.00000000000 -0.24 0 0 0
Te1 0.21283661968  0.20883661968  0.20883661968 -0.26 0 0 0
Bi  0.40038902982  0.40438902982  0.40038902982 0.38 0 0 0
Bi  0.59961097018  0.59961097018  0.59961097018 0.38 0 0 0
Te1 0.79116338032  0.79116338032  0.79116338032 -0.26 0 0 0

observables
energy ev
-0.6432480137876 100.0
end

#offtwo005
cell
10.26828 10.26828 10.26828 24.4945 24.4945 24.4945 0 0 0 0 0 0
fractional
Te2 0.00000000000  0.00000000000  0.00000000000 -0.24 0 0 0
Te1 0.21383661968  0.20883661968  0.20883661968 -0.26 0 0 0
Bi  0.40038902982  0.40538902982  0.40038902982 0.38 0 0 0
Bi  0.59961097018  0.59961097018  0.59961097018 0.38 0 0 0
Te1 0.79116338032  0.79116338032  0.79116338032 -0.26 0 0 0

observables
energy ev
-0.6372260455120 100.0
end

#offtwo006
cell
10.26828 10.26828 10.26828 24.4945 24.4945 24.4945 0 0 0 0 0 0
fractional
Te2 0.00000000000  0.00000000000  0.00000000000 -0.24 0 0 0
Te1 0.21483661968  0.20883661968  0.20883661968 -0.26 0 0 0
Bi  0.40038902982  0.40638902982  0.40038902982 0.38 0 0 0
Bi  0.59961097018  0.59961097018  0.59961097018 0.38 0 0 0
Te1 0.79116338032  0.79116338032  0.79116338032 -0.26 0 0 0

observables
energy ev
-0.6298359368551 100.0
end

#offtwo007
cell
10.26828 10.26828 10.26828 24.4945 24.4945 24.4945 0 0 0 0 0 0
fractional
Te2 0.00000000000  0.00000000000  0.00000000000 -0.24 0 0 0
Te1 0.21583661968  0.20883661968  0.20883661968 -0.26 0 0 0
Bi  0.40038902982  0.40738902982  0.40038902982 0.38 0 0 0
Bi  0.59961097018  0.59961097018  0.59961097018 0.38 0 0 0
Te1 0.79116338032  0.79116338032  0.79116338032 -0.26 0 0 0

observables
energy ev
-0.6210692530840 100.0
end

#offtwo011
cell
10.26828 10.26828 10.26828 24.4945 24.4945 24.4945 0 0 0 0 0 0
fractional
Te2 0.00000000000  0.00000000000  0.00000000000 -0.24 0 0 0
Te1 0.20983661968  0.20883661968  0.20883661968 -0.26 0 0 0
Bi  0.40038902982  0.39938902982  0.40038902982 0.38 0 0 0
Bi  0.59961097018  0.59961097018  0.59961097018 0.38 0 0 0
Te1 0.79116338032  0.79116338032  0.79116338032 -0.26 0 0 0

observables
energy ev
-0.6534948244281 100.0
end

#offtwo012
cell
10.26828 10.26828 10.26828 24.4945 24.4945 24.4945 0 0 0 0 0 0
fractional
Te2 0.00000000000  0.00000000000  0.00000000000 -0.24 0 0 0
Te1 0.21083661968  0.20883661968  0.20883661968 -0.26 0 0 0
Bi  0.40038902982  0.39838902982  0.40038902982 0.38 0 0 0
Bi  0.59961097018  0.59961097018  0.59961097018 0.38 0 0 0
Te1 0.79116338032  0.79116338032  0.79116338032 -0.26 0 0 0

observables
energy ev
-0.6518483211997 100.0
end

#offtwo013
cell
10.26828 10.26828 10.26828 24.4945 24.4945 24.4945 0 0 0 0 0 0
fractional
Te2 0.00000000000  0.00000000000  0.00000000000 -0.24 0 0 0
Te1 0.21183661968  0.20883661968  0.20883661968 -0.26 0 0 0
Bi  0.40038902982  0.39738902982  0.40038902982 0.38 0 0 0
Bi  0.59961097018  0.59961097018  0.59961097018 0.38 0 0 0
Te1 0.79116338032  0.79116338032  0.79116338032 -0.26 0 0 0

observables
energy ev
-0.6488995963687 100.0
end

#offtwo014
cell
10.26828 10.26828 10.26828 24.4945 24.4945 24.4945 0 0 0 0 0 0
fractional
Te2 0.00000000000  0.00000000000  0.00000000000 -0.24 0 0 0
Te1 0.21283661968  0.20883661968  0.20883661968 -0.26 0 0 0
Bi  0.40038902982  0.39638902982  0.40038902982 0.38 0 0 0
Bi  0.59961097018  0.59961097018  0.59961097018 0.38 0 0 0
Te1 0.79116338032  0.79116338032  0.79116338032 -0.26 0 0 0

observables
energy ev
-0.6446421849566 100.0
end

#offtwo015
#cell
#10.26828 10.26828 10.26828 24.4945 24.4945 24.4945 0 0 0 0 0 0
#fractional
#Te2 0.00000000000  0.00000000000  0.00000000000 -0.24 0 0 0
#Te1 0.21383661968  0.20883661968  0.20883661968 -0.26 0 0 0
#Bi  0.40038902982  0.39538902982  0.40038902982 0.38 0 0 0
#Bi  0.59961097018  0.59961097018  0.59961097018 0.38 0 0 0
#Te1 0.79116338032  0.79116338032  0.79116338032 -0.26 0 0 0

#offtwo016
#cell
#10.26828 10.26828 10.26828 24.4945 24.4945 24.4945 0 0 0 0 0 0
#fractional
#Te2 0.00000000000  0.00000000000  0.00000000000 -0.24 0 0 0
#Te1 0.21483661968  0.20883661968  0.20883661968 -0.26 0 0 0
#Bi  0.40038902982  0.39438902982  0.40038902982 0.38 0 0 0
#Bi  0.59961097018  0.59961097018  0.59961097018 0.38 0 0 0
#Te1 0.79116338032  0.79116338032  0.79116338032 -0.26 0 0 0

#offtwo017
#cell
#10.26828 10.26828 10.26828 24.4945 24.4945 24.4945 0 0 0 0 0 0
#fractional
#Te2 0.00000000000  0.00000000000  0.00000000000 -0.24 0 0 0
#Te1 0.21583661968  0.20883661968  0.20883661968 -0.26 0 0 0
#Bi  0.40038902982  0.39338902982  0.40038902982 0.38 0 0 0
#Bi  0.59961097018  0.59961097018  0.59961097018 0.38 0 0 0
#Te1 0.79116338032  0.79116338032  0.79116338032 -0.26 0 0 0

#largetwo001
cell
10.26828 10.26828 10.26828 24.4945 24.4945 24.4945 0 0 0 0 0 0
fractional
Te2 0.00000000000  0.00000000000  0.00000000000 -0.24 0 0 0
Te1 0.21883661968  0.20883661968  0.20883661968 -0.26 0 0 0
Bi  0.41038902982  0.40038902982  0.40038902982 0.38 0 0 0
Bi  0.59961097018  0.59961097018  0.59961097018 0.38 0 0 0
Te1 0.79116338032  0.79116338032  0.79116338032 -0.26 0 0 0

observables
energy ev
-0.5858097634707 100.0
end



#largetwo011
cell
10.26828 10.26828 10.26828 24.4945 24.4945 24.4945 0 0 0 0 0 0
fractional
Te2 0.00000000000  0.00000000000  0.00000000000 -0.24 0 0 0
Te1 0.21883661968  0.20883661968  0.20883661968 -0.26 0 0 0
Bi  0.39038902982  0.40038902982  0.40038902982 0.38 0 0 0
Bi  0.59961097018  0.59961097018  0.59961097018 0.38 0 0 0
Te1 0.79116338032  0.79116338032  0.79116338032 -0.26 0 0 0

observables
energy ev
-0.5918937490563 100.0
end



#lofftwo001
cell
10.26828 10.26828 10.26828 24.4945 24.4945 24.4945 0 0 0 0 0 0
fractional
Te2 0.00000000000  0.00000000000  0.00000000000 -0.24 0 0 0
Te1 0.21883661968  0.20883661968  0.20883661968 -0.26 0 0 0
Bi  0.40038902982  0.41038902982  0.40038902982 0.38 0 0 0
Bi  0.59961097018  0.59961097018  0.59961097018 0.38 0 0 0
Te1 0.79116338032  0.79116338032  0.79116338032 -0.26 0 0 0

observables
energy ev
-0.5864357365103 100.0
end



#sametwo001
cell
10.26828 10.26828 10.26828 24.4945 24.4945 24.4945 0 0 0 0 0 0
fractional
Te2 0.00000000000  0.00000000000  0.00000000000 -0.24 0 0 0
Te1 0.20983661968  0.20883661968  0.20883661968 -0.26 0 0 0
Bi  0.40038902982  0.40038902982  0.40038902982 0.38 0 0 0
Bi  0.59961097018  0.59961097018  0.59961097018 0.38 0 0 0
Te1 0.79216338032  0.79116338032  0.79116338032 -0.26 0 0 0

observables
energy ev
-0.6533126410682 100.0
end

#sametwo002
cell
10.26828 10.26828 10.26828 24.4945 24.4945 24.4945 0 0 0 0 0 0
fractional
Te2 0.00000000000  0.00000000000  0.00000000000 -0.24 0 0 0
Te1 0.21083661968  0.20883661968  0.20883661968 -0.26 0 0 0
Bi  0.40038902982  0.40038902982  0.40038902982 0.38 0 0 0
Bi  0.59961097018  0.59961097018  0.59961097018 0.38 0 0 0
Te1 0.79316338032  0.79116338032  0.79116338032 -0.26 0 0 0

observables
energy ev
-0.6517065371470 100.0
end

#sametwo003
cell
10.26828 10.26828 10.26828 24.4945 24.4945 24.4945 0 0 0 0 0 0
fractional
Te2 0.00000000000  0.00000000000  0.00000000000 -0.24 0 0 0
Te1 0.21183661968  0.20883661968  0.20883661968 -0.26 0 0 0
Bi  0.40038902982  0.40038902982  0.40038902982 0.38 0 0 0
Bi  0.59961097018  0.59961097018  0.59961097018 0.38 0 0 0
Te1 0.79416338032  0.79116338032  0.79116338032 -0.26 0 0 0

observables
energy ev
-0.6490301081956 100.0
end

#sametwo004
cell
10.26828 10.26828 10.26828 24.4945 24.4945 24.4945 0 0 0 0 0 0
fractional
Te2 0.00000000000  0.00000000000  0.00000000000 -0.24 0 0 0
Te1 0.21283661968  0.20883661968  0.20883661968 -0.26 0 0 0
Bi  0.40038902982  0.40038902982  0.40038902982 0.38 0 0 0
Bi  0.59961097018  0.59961097018  0.59961097018 0.38 0 0 0
Te1 0.79516338032  0.79116338032  0.79116338032 -0.26 0 0 0

observables
energy ev
-0.6452839705510 100.0
end

#sametwo005
cell
10.26828 10.26828 10.26828 24.4945 24.4945 24.4945 0 0 0 0 0 0
fractional
Te2 0.00000000000  0.00000000000  0.00000000000 -0.24 0 0 0
Te1 0.21383661968  0.20883661968  0.20883661968 -0.26 0 0 0
Bi  0.40038902982  0.40038902982  0.40038902982 0.38 0 0 0
Bi  0.59961097018  0.59961097018  0.59961097018 0.38 0 0 0
Te1 0.79616338032  0.79116338032  0.79116338032 -0.26 0 0 0

observables
energy ev
-0.6404689868154 100.0
end

#sametwo011
cell
10.26828 10.26828 10.26828 24.4945 24.4945 24.4945 0 0 0 0 0 0
fractional
Te2 0.00000000000  0.00000000000  0.00000000000 -0.24 0 0 0
Te1 0.20883661968  0.20883661968  0.20883661968 -0.26 0 0 0
Bi  0.40138902982  0.40038902982  0.40038902982 0.38 0 0 0
Bi  0.59861097018  0.59961097018  0.59961097018 0.38 0 0 0
Te1 0.79116338032  0.79116338032  0.79116338032 -0.26 0 0 0

observables
energy ev
-0.6526924889926 100.0
end

#sametwo012
cell
10.26828 10.26828 10.26828 24.4945 24.4945 24.4945 0 0 0 0 0 0
fractional
Te2 0.00000000000  0.00000000000  0.00000000000 -0.24 0 0 0
Te1 0.20883661968  0.20883661968  0.20883661968 -0.26 0 0 0
Bi  0.40238902982  0.40038902982  0.40038902982 0.38 0 0 0
Bi  0.59761097018  0.59961097018  0.59961097018 0.38 0 0 0
Te1 0.79116338032  0.79116338032  0.79116338032 -0.26 0 0 0

observables
energy ev
-0.6497858703683 100.0
end

#sametwo013
cell
10.26828 10.26828 10.26828 24.4945 24.4945 24.4945 0 0 0 0 0 0
fractional
Te2 0.00000000000  0.00000000000  0.00000000000 -0.24 0 0 0
Te1 0.20883661968  0.20883661968  0.20883661968 -0.26 0 0 0
Bi  0.40338902982  0.40038902982  0.40038902982 0.38 0 0 0
Bi  0.59661097018  0.59961097018  0.59961097018 0.38 0 0 0
Te1 0.79116338032  0.79116338032  0.79116338032 -0.26 0 0 0

observables
energy ev
-0.6451264412569 100.0
end

#sametwo014
cell
10.26828 10.26828 10.26828 24.4945 24.4945 24.4945 0 0 0 0 0 0
fractional
Te2 0.00000000000  0.00000000000  0.00000000000 -0.24 0 0 0
Te1 0.20883661968  0.20883661968  0.20883661968 -0.26 0 0 0
Bi  0.40438902982  0.40038902982  0.40038902982 0.38 0 0 0
Bi  0.59561097018  0.59961097018  0.59961097018 0.38 0 0 0
Te1 0.79116338032  0.79116338032  0.79116338032 -0.26 0 0 0

observables
energy ev
-0.6387130130944 100.0
end

#sametwo015
cell
10.26828 10.26828 10.26828 24.4945 24.4945 24.4945 0 0 0 0 0 0
fractional
Te2 0.00000000000  0.00000000000  0.00000000000 -0.24 0 0 0
Te1 0.20883661968  0.20883661968  0.20883661968 -0.26 0 0 0
Bi  0.40538902982  0.40038902982  0.40038902982 0.38 0 0 0
Bi  0.59461097018  0.59961097018  0.59961097018 0.38 0 0 0
Te1 0.79116338032  0.79116338032  0.79116338032 -0.26 0 0 0

observables
energy ev
-0.6305449856333 100.0
end


#lattice001
cell
10.3212 10.3212 10.3212 24.4945 24.4945 24.4945 0 0 0 0 0 0
fractional
Te2 0.00000000000  0.00000000000  0.00000000000 -0.24 0 0 0
Te1 0.20883661968  0.20883661968  0.20883661968 -0.26 0 0 0
Bi  0.40038902982  0.40038902982  0.40038902982 0.38 0 0 0
Bi  0.59961097018  0.59961097018  0.59961097018 0.38 0 0 0
Te1 0.79116338032  0.79116338032  0.79116338032 -0.26 0 0 0

observables
energy ev
-0.6470309677501 100.0
end

#lattice002
cell
10.37412 10.37412 10.37412 24.4945 24.4945 24.4945 0 0 0 0 0 0
fractional
Te2 0.00000000000  0.00000000000  0.00000000000 -0.24 0 0 0
Te1 0.20883661968  0.20883661968  0.20883661968 -0.26 0 0 0
Bi  0.40038902982  0.40038902982  0.40038902982 0.38 0 0 0
Bi  0.59961097018  0.59961097018  0.59961097018 0.38 0 0 0
Te1 0.79116338032  0.79116338032  0.79116338032 -0.26 0 0 0

observables
energy ev
-0.6272722429638 100.0
end

#lattice003
cell
10.4270 10.4270 10.4270 24.4945 24.4945 24.4945 0 0 0 0 0 0
fractional
Te2 0.00000000000  0.00000000000  0.00000000000 -0.24 0 0 0
Te1 0.20883661968  0.20883661968  0.20883661968 -0.26 0 0 0
Bi  0.40038902982  0.40038902982  0.40038902982 0.38 0 0 0
Bi  0.59961097018  0.59961097018  0.59961097018 0.38 0 0 0
Te1 0.79116338032  0.79116338032  0.79116338032 -0.26 0 0 0

observables
energy ev
-0.5952667873867 100.0
end

#lattice011
cell
10.21536261 10.21536261 10.21536261 24.4945 24.4945 24.4945 0 0 0 0 0 0
fractional
Te2 0.00000000000  0.00000000000  0.00000000000 -0.24 0 0 0
Te1 0.20883661968  0.20883661968  0.20883661968 -0.26 0 0 0
Bi  0.40038902982  0.40038902982  0.40038902982 0.38 0 0 0
Bi  0.59961097018  0.59961097018  0.59961097018 0.38 0 0 0
Te1 0.79116338032  0.79116338032  0.79116338032 -0.26 0 0 0

observables
energy ev
-0.6469987234981 100.0
end

#lattice012
cell
10.162445 10.162445 10.162445 24.4945 24.4945 24.4945 0 0 0 0 0 0
fractional
Te2 0.00000000000  0.00000000000  0.00000000000 -0.24 0 0 0